#************************************************************************************
#*                  Generated by cif2cell 1.2.10 2016-11-10 15:23                   *
#*  T. Bjorkman, Comp. Phys. Commun. 182, 1183-1186 (2011). Please cite generously. *
#*                                                                                  *
#*                Data obtained from ICSD. Reference number : 97046                 *
#*               Gd (Mn2 O5)   (Gadolinium mangano(III)manganate(IV))               *
#*             Kagomiya, I. et al., Ferroelectrics 280, 131-143 (2002)              *
#************************************************************************************
ndtset   1 jdtset 1
!ndtset 2
# Structural parameters
acell    3*13.8953449859

rprim    1.000000000000000   0.000000000000000   0.000000000000000 
         0.000000000000000   1.161020521956726   0.000000000000000 
         0.000000000000000   0.000000000000000   0.772558512736125 
natom    32  
ntypat   3  
typat    1 1 1 1 2 2 2 2 2 2 2 2 3 3 3 3 3  3 3 3 3 3  3 3 3 3 3  3 3 3 3 3  
znucl    64 25 8  
xred     0.139500000000000   0.171600000000000   0.000000000000000 !Gd3+    u   u 1
         0.639500000000000   0.328400000000000   0.000000000000000 ! my     d   u 2
         0.860500000000000   0.828400000000000   0.000000000000000 ! I      u   u 3
         0.360500000000000   0.671600000000000   0.000000000000000 ! I my   d   u 4
         0.000000000000000   0.500000000000000   0.744900000000000 !Mn4+    u   u 5
         0.000000000000000   0.500000000000000   0.255100000000000 ! mz     u   u 6
         0.500000000000000   0.000000000000000   0.744900000000000 ! my     d   u 7
         0.500000000000000   0.000000000000000   0.255100000000000 ! mz my  d   u 8
         0.411800000000000   0.351800000000000   0.500000000000000 !Mn3+    d   u 9
         0.588200000000000   0.648200000000000   0.500000000000000 ! I      d   u 10
         0.088200000000000   0.851800000000000   0.500000000000000 ! I my   u   u 11
         0.911800000000000   0.148200000000000   0.500000000000000 ! my     u   u 12
         0.000000000000000   0.000000000000000   0.269700000000000 
         0.500000000000000   0.500000000000000   0.730300000000000 
         0.000000000000000   0.000000000000000   0.730300000000000 
         0.500000000000000   0.500000000000000   0.269700000000000 
         0.152600000000000   0.448600000000000   0.000000000000000 
         0.652600000000000   0.051400000000000   0.000000000000000 
         0.847400000000000   0.551400000000000   0.000000000000000 
         0.347400000000000   0.948600000000000   0.000000000000000 
         0.145400000000000   0.435600000000000   0.500000000000000 
         0.645400000000000   0.064400000000000   0.500000000000000 
         0.854600000000000   0.564400000000000   0.500000000000000 
         0.354600000000000   0.935600000000000   0.500000000000000 
         0.399400000000000   0.207600000000000   0.245000000000000 
         0.899400000000000   0.292400000000000   0.755000000000000 
         0.600600000000000   0.792400000000000   0.755000000000000 
         0.100600000000000   0.707600000000000   0.755000000000000 
         0.600600000000000   0.792400000000000   0.245000000000000 
         0.399400000000000   0.207600000000000   0.755000000000000 
         0.899400000000000   0.292400000000000   0.245000000000000 
         0.100600000000000   0.707600000000000   0.245000000000000 
#Spin
nsppol 2 nspden 2 nspinor 1
spinat  0       0       7.
 0       0       -7.
 0       0       -7.
 0       0       7.
 0       0       3.
 0       0       -3.
 0       0       -3.
 0       0       3.
 0       0       -4.
 0       0       4.
 0       0       -4.
 0       0       4.
 60*0.
# LDA+U
usepawu   1 #1-fully localized, 2-around MF
lpawu    3   2  -1
upawu  2.0 4.0 0.0 eV
jpawu  0.9 0.9 0.0 eV
#AUTOPARAL=1

ecut 25 pawecutdg 40
nband  260
occopt 7 tsmear 0.1 eV
prtdensph 1 # print magnetic moments inside atomic spheres
#prtdos 2 # dos using tetra
dmatudiag 1 # occupation matrix is diagonalized and printed in log file at each SCF cycle
#chksymbreak 0  # The k point grid is not symmetric, but the calculations being for the ground-state, this is not a problem.
# optcell 2 ecutsm 0.5 ntime 30 ionmov 2 restartxf -1
toldfe 1.0d-7 diemix 0.2 diemixmag -0.1
#toldff 5.0d-6
# Self-consistent run to get the density
     nstep1   100
    tolvrs1    1.00d-10 #Tolerance for convergence
    prtden1    1
#    diemac1    12.0     #Preconditioner for scf
    kptopt1    1 # automatic grid, symmetry
     ngkpt1    4 4 6
    istwfk1    192*1     #Controls the form of the wavefunctions

# Second: Wannier90
     iscf2 -2   #nscf run
    nstep2 0      #just read the old wave functions
   tolwfr2 1.e-10 #dummy here
   getwfk2 1
   getden2 1   # Usual file handling data
  prtwant2 2   # Call to Wannier90
 w90iniprj 1   # Random projections
   istwfk2 192*1 #Controls the form of the wavefunctions
   kptopt2 3   # automatic grid, no symmetry
   ngkpt2 4 4 6
w90prtunk2 1   #Prints UNK files (for plotting the Wannier functions)
