  wannier_plot_supercell = 3
  num_bands = 24
  dis_win_min = -5.0
  dis_froz_min = -2.0
  num_iter = 0
  conv_noise_num = 10
  wannier_plot = true
  dis_win_max = 22.5
  write_hr = true
  num_wann = 8
  conv_noise_amp = 1.0
  restart = plot
  dis_mix_ratio = 1.0
  write_rmn = true
  mp_grid =   12 12 12
  dis_num_iter = 300
  dis_froz_max = 11.5

begin unit_cell_cart
