&inputpp
   spin_component = 'up'
   prefix = 'pwo'
   write_amn = true
   write_unk = true
   outdir = '.'
   write_mmn = true
   seedname = 'wan'
/

