   dis_froz_max = 11.5
   num_bands = 24
   dis_win_min = -5.0
   dis_froz_min = -2.0
   num_iter = 0
   conv_noise_num = 10
   wannier_plot = true
   dis_win_max = 22.5
   write_hr = true
   num_wann = 8
   conv_noise_amp = 1.0
   dis_mix_ratio = 1.0
   write_rmn = true
   mp_grid = 12 12 12
   dis_num_iter = 300
   wannier_plot_supercell = 3

begin projections
Te: s;p
Ge: s;p

end projections

begin kpoint_path
A 0.5 1.0 0.0 Z 0.5 0.5 0.5
Z 0.5 0.5 0.5 U 0.25 1.0 0.25
end kpoint_path

begin unit_cell_cart
bohr
4.5543137 0.0 6.686168
-2.2771568 3.9441514 6.686168
-2.2771568 -3.9441514 6.686168
end unit_cell_cart

begin atoms_frac
Te 0.52325284 0.52325284 0.52325284
Ge -0.002252856 -0.002252856 -0.002252856
end atoms_frac

begin kpoints
0.0 0.0 0.0
0.0 0.0 0.08333333
0.0 0.0 0.16666667
0.0 0.0 0.25
0.0 0.0 0.33333334
0.0 0.0 0.41666666
0.0 0.0 0.5
0.0 0.0 0.5833333
0.0 0.0 0.6666667
0.0 0.0 0.75
0.0 0.0 0.8333333
0.0 0.0 0.9166667
0.0 0.08333333 0.0
0.0 0.08333333 0.08333333
0.0 0.08333333 0.16666667
0.0 0.08333333 0.25
0.0 0.08333333 0.33333334
0.0 0.08333333 0.41666666
0.0 0.08333333 0.5
0.0 0.08333333 0.5833333
0.0 0.08333333 0.6666667
0.0 0.08333333 0.75
0.0 0.08333333 0.8333333
0.0 0.08333333 0.9166667
0.0 0.16666667 0.0
0.0 0.16666667 0.08333333
0.0 0.16666667 0.16666667
0.0 0.16666667 0.25
0.0 0.16666667 0.33333334
0.0 0.16666667 0.41666666
0.0 0.16666667 0.5
0.0 0.16666667 0.5833333
0.0 0.16666667 0.6666667
0.0 0.16666667 0.75
0.0 0.16666667 0.8333333
0.0 0.16666667 0.9166667
0.0 0.25 0.0
0.0 0.25 0.08333333
0.0 0.25 0.16666667
0.0 0.25 0.25
0.0 0.25 0.33333334
0.0 0.25 0.41666666
0.0 0.25 0.5
0.0 0.25 0.5833333
0.0 0.25 0.6666667
0.0 0.25 0.75
0.0 0.25 0.8333333
0.0 0.25 0.9166667
0.0 0.33333334 0.0
0.0 0.33333334 0.08333333
0.0 0.33333334 0.16666667
0.0 0.33333334 0.25
0.0 0.33333334 0.33333334
0.0 0.33333334 0.41666666
0.0 0.33333334 0.5
0.0 0.33333334 0.5833333
0.0 0.33333334 0.6666667
0.0 0.33333334 0.75
0.0 0.33333334 0.8333333
0.0 0.33333334 0.9166667
0.0 0.41666666 0.0
0.0 0.41666666 0.08333333
0.0 0.41666666 0.16666667
0.0 0.41666666 0.25
0.0 0.41666666 0.33333334
0.0 0.41666666 0.41666666
0.0 0.41666666 0.5
0.0 0.41666666 0.5833333
0.0 0.41666666 0.6666667
0.0 0.41666666 0.75
0.0 0.41666666 0.8333333
0.0 0.41666666 0.9166667
0.0 0.5 0.0
0.0 0.5 0.08333333
0.0 0.5 0.16666667
0.0 0.5 0.25
0.0 0.5 0.33333334
0.0 0.5 0.41666666
0.0 0.5 0.5
0.0 0.5 0.5833333
0.0 0.5 0.6666667
0.0 0.5 0.75
0.0 0.5 0.8333333
0.0 0.5 0.9166667
0.0 0.5833333 0.0
0.0 0.5833333 0.08333333
0.0 0.5833333 0.16666667
0.0 0.5833333 0.25
0.0 0.5833333 0.33333334
0.0 0.5833333 0.41666666
0.0 0.5833333 0.5
0.0 0.5833333 0.5833333
0.0 0.5833333 0.6666667
0.0 0.5833333 0.75
0.0 0.5833333 0.8333333
0.0 0.5833333 0.9166667
0.0 0.6666667 0.0
0.0 0.6666667 0.08333333
0.0 0.6666667 0.16666667
0.0 0.6666667 0.25
0.0 0.6666667 0.33333334
0.0 0.6666667 0.41666666
0.0 0.6666667 0.5
0.0 0.6666667 0.5833333
0.0 0.6666667 0.6666667
0.0 0.6666667 0.75
0.0 0.6666667 0.8333333
0.0 0.6666667 0.9166667
0.0 0.75 0.0
0.0 0.75 0.08333333
0.0 0.75 0.16666667
0.0 0.75 0.25
0.0 0.75 0.33333334
0.0 0.75 0.41666666
0.0 0.75 0.5
0.0 0.75 0.5833333
0.0 0.75 0.6666667
0.0 0.75 0.75
0.0 0.75 0.8333333
0.0 0.75 0.9166667
0.0 0.8333333 0.0
0.0 0.8333333 0.08333333
0.0 0.8333333 0.16666667
0.0 0.8333333 0.25
0.0 0.8333333 0.33333334
0.0 0.8333333 0.41666666
0.0 0.8333333 0.5
0.0 0.8333333 0.5833333
0.0 0.8333333 0.6666667
0.0 0.8333333 0.75
0.0 0.8333333 0.8333333
0.0 0.8333333 0.9166667
0.0 0.9166667 0.0
0.0 0.9166667 0.08333333
0.0 0.9166667 0.16666667
0.0 0.9166667 0.25
0.0 0.9166667 0.33333334
0.0 0.9166667 0.41666666
0.0 0.9166667 0.5
0.0 0.9166667 0.5833333
0.0 0.9166667 0.6666667
0.0 0.9166667 0.75
0.0 0.9166667 0.8333333
0.0 0.9166667 0.9166667
0.08333333 0.0 0.0
0.08333333 0.0 0.08333333
0.08333333 0.0 0.16666667
0.08333333 0.0 0.25
0.08333333 0.0 0.33333334
0.08333333 0.0 0.41666666
0.08333333 0.0 0.5
0.08333333 0.0 0.5833333
0.08333333 0.0 0.6666667
0.08333333 0.0 0.75
0.08333333 0.0 0.8333333
0.08333333 0.0 0.9166667
0.08333333 0.08333333 0.0
0.08333333 0.08333333 0.08333333
0.08333333 0.08333333 0.16666667
0.08333333 0.08333333 0.25
0.08333333 0.08333333 0.33333334
0.08333333 0.08333333 0.41666666
0.08333333 0.08333333 0.5
0.08333333 0.08333333 0.5833333
0.08333333 0.08333333 0.6666667
0.08333333 0.08333333 0.75
0.08333333 0.08333333 0.8333333
0.08333333 0.08333333 0.9166667
0.08333333 0.16666667 0.0
0.08333333 0.16666667 0.08333333
0.08333333 0.16666667 0.16666667
0.08333333 0.16666667 0.25
0.08333333 0.16666667 0.33333334
0.08333333 0.16666667 0.41666666
0.08333333 0.16666667 0.5
0.08333333 0.16666667 0.5833333
0.08333333 0.16666667 0.6666667
0.08333333 0.16666667 0.75
0.08333333 0.16666667 0.8333333
0.08333333 0.16666667 0.9166667
0.08333333 0.25 0.0
0.08333333 0.25 0.08333333
0.08333333 0.25 0.16666667
0.08333333 0.25 0.25
0.08333333 0.25 0.33333334
0.08333333 0.25 0.41666666
0.08333333 0.25 0.5
0.08333333 0.25 0.5833333
0.08333333 0.25 0.6666667
0.08333333 0.25 0.75
0.08333333 0.25 0.8333333
0.08333333 0.25 0.9166667
0.08333333 0.33333334 0.0
0.08333333 0.33333334 0.08333333
0.08333333 0.33333334 0.16666667
0.08333333 0.33333334 0.25
0.08333333 0.33333334 0.33333334
0.08333333 0.33333334 0.41666666
0.08333333 0.33333334 0.5
0.08333333 0.33333334 0.5833333
0.08333333 0.33333334 0.6666667
0.08333333 0.33333334 0.75
0.08333333 0.33333334 0.8333333
0.08333333 0.33333334 0.9166667
0.08333333 0.41666666 0.0
0.08333333 0.41666666 0.08333333
0.08333333 0.41666666 0.16666667
0.08333333 0.41666666 0.25
0.08333333 0.41666666 0.33333334
0.08333333 0.41666666 0.41666666
0.08333333 0.41666666 0.5
0.08333333 0.41666666 0.5833333
0.08333333 0.41666666 0.6666667
0.08333333 0.41666666 0.75
0.08333333 0.41666666 0.8333333
0.08333333 0.41666666 0.9166667
0.08333333 0.5 0.0
0.08333333 0.5 0.08333333
0.08333333 0.5 0.16666667
0.08333333 0.5 0.25
0.08333333 0.5 0.33333334
0.08333333 0.5 0.41666666
0.08333333 0.5 0.5
0.08333333 0.5 0.5833333
0.08333333 0.5 0.6666667
0.08333333 0.5 0.75
0.08333333 0.5 0.8333333
0.08333333 0.5 0.9166667
0.08333333 0.5833333 0.0
0.08333333 0.5833333 0.08333333
0.08333333 0.5833333 0.16666667
0.08333333 0.5833333 0.25
0.08333333 0.5833333 0.33333334
0.08333333 0.5833333 0.41666666
0.08333333 0.5833333 0.5
0.08333333 0.5833333 0.5833333
0.08333333 0.5833333 0.6666667
0.08333333 0.5833333 0.75
0.08333333 0.5833333 0.8333333
0.08333333 0.5833333 0.9166667
0.08333333 0.6666667 0.0
0.08333333 0.6666667 0.08333333
0.08333333 0.6666667 0.16666667
0.08333333 0.6666667 0.25
0.08333333 0.6666667 0.33333334
0.08333333 0.6666667 0.41666666
0.08333333 0.6666667 0.5
0.08333333 0.6666667 0.5833333
0.08333333 0.6666667 0.6666667
0.08333333 0.6666667 0.75
0.08333333 0.6666667 0.8333333
0.08333333 0.6666667 0.9166667
0.08333333 0.75 0.0
0.08333333 0.75 0.08333333
0.08333333 0.75 0.16666667
0.08333333 0.75 0.25
0.08333333 0.75 0.33333334
0.08333333 0.75 0.41666666
0.08333333 0.75 0.5
0.08333333 0.75 0.5833333
0.08333333 0.75 0.6666667
0.08333333 0.75 0.75
0.08333333 0.75 0.8333333
0.08333333 0.75 0.9166667
0.08333333 0.8333333 0.0
0.08333333 0.8333333 0.08333333
0.08333333 0.8333333 0.16666667
0.08333333 0.8333333 0.25
0.08333333 0.8333333 0.33333334
0.08333333 0.8333333 0.41666666
0.08333333 0.8333333 0.5
0.08333333 0.8333333 0.5833333
0.08333333 0.8333333 0.6666667
0.08333333 0.8333333 0.75
0.08333333 0.8333333 0.8333333
0.08333333 0.8333333 0.9166667
0.08333333 0.9166667 0.0
0.08333333 0.9166667 0.08333333
0.08333333 0.9166667 0.16666667
0.08333333 0.9166667 0.25
0.08333333 0.9166667 0.33333334
0.08333333 0.9166667 0.41666666
0.08333333 0.9166667 0.5
0.08333333 0.9166667 0.5833333
0.08333333 0.9166667 0.6666667
0.08333333 0.9166667 0.75
0.08333333 0.9166667 0.8333333
0.08333333 0.9166667 0.9166667
0.16666667 0.0 0.0
0.16666667 0.0 0.08333333
0.16666667 0.0 0.16666667
0.16666667 0.0 0.25
0.16666667 0.0 0.33333334
0.16666667 0.0 0.41666666
0.16666667 0.0 0.5
0.16666667 0.0 0.5833333
0.16666667 0.0 0.6666667
0.16666667 0.0 0.75
0.16666667 0.0 0.8333333
0.16666667 0.0 0.9166667
0.16666667 0.08333333 0.0
0.16666667 0.08333333 0.08333333
0.16666667 0.08333333 0.16666667
0.16666667 0.08333333 0.25
0.16666667 0.08333333 0.33333334
0.16666667 0.08333333 0.41666666
0.16666667 0.08333333 0.5
0.16666667 0.08333333 0.5833333
0.16666667 0.08333333 0.6666667
0.16666667 0.08333333 0.75
0.16666667 0.08333333 0.8333333
0.16666667 0.08333333 0.9166667
0.16666667 0.16666667 0.0
0.16666667 0.16666667 0.08333333
0.16666667 0.16666667 0.16666667
0.16666667 0.16666667 0.25
0.16666667 0.16666667 0.33333334
0.16666667 0.16666667 0.41666666
0.16666667 0.16666667 0.5
0.16666667 0.16666667 0.5833333
0.16666667 0.16666667 0.6666667
0.16666667 0.16666667 0.75
0.16666667 0.16666667 0.8333333
0.16666667 0.16666667 0.9166667
0.16666667 0.25 0.0
0.16666667 0.25 0.08333333
0.16666667 0.25 0.16666667
0.16666667 0.25 0.25
0.16666667 0.25 0.33333334
0.16666667 0.25 0.41666666
0.16666667 0.25 0.5
0.16666667 0.25 0.5833333
0.16666667 0.25 0.6666667
0.16666667 0.25 0.75
0.16666667 0.25 0.8333333
0.16666667 0.25 0.9166667
0.16666667 0.33333334 0.0
0.16666667 0.33333334 0.08333333
0.16666667 0.33333334 0.16666667
0.16666667 0.33333334 0.25
0.16666667 0.33333334 0.33333334
0.16666667 0.33333334 0.41666666
0.16666667 0.33333334 0.5
0.16666667 0.33333334 0.5833333
0.16666667 0.33333334 0.6666667
0.16666667 0.33333334 0.75
0.16666667 0.33333334 0.8333333
0.16666667 0.33333334 0.9166667
0.16666667 0.41666666 0.0
0.16666667 0.41666666 0.08333333
0.16666667 0.41666666 0.16666667
0.16666667 0.41666666 0.25
0.16666667 0.41666666 0.33333334
0.16666667 0.41666666 0.41666666
0.16666667 0.41666666 0.5
0.16666667 0.41666666 0.5833333
0.16666667 0.41666666 0.6666667
0.16666667 0.41666666 0.75
0.16666667 0.41666666 0.8333333
0.16666667 0.41666666 0.9166667
0.16666667 0.5 0.0
0.16666667 0.5 0.08333333
0.16666667 0.5 0.16666667
0.16666667 0.5 0.25
0.16666667 0.5 0.33333334
0.16666667 0.5 0.41666666
0.16666667 0.5 0.5
0.16666667 0.5 0.5833333
0.16666667 0.5 0.6666667
0.16666667 0.5 0.75
0.16666667 0.5 0.8333333
0.16666667 0.5 0.9166667
0.16666667 0.5833333 0.0
0.16666667 0.5833333 0.08333333
0.16666667 0.5833333 0.16666667
0.16666667 0.5833333 0.25
0.16666667 0.5833333 0.33333334
0.16666667 0.5833333 0.41666666
0.16666667 0.5833333 0.5
0.16666667 0.5833333 0.5833333
0.16666667 0.5833333 0.6666667
0.16666667 0.5833333 0.75
0.16666667 0.5833333 0.8333333
0.16666667 0.5833333 0.9166667
0.16666667 0.6666667 0.0
0.16666667 0.6666667 0.08333333
0.16666667 0.6666667 0.16666667
0.16666667 0.6666667 0.25
0.16666667 0.6666667 0.33333334
0.16666667 0.6666667 0.41666666
0.16666667 0.6666667 0.5
0.16666667 0.6666667 0.5833333
0.16666667 0.6666667 0.6666667
0.16666667 0.6666667 0.75
0.16666667 0.6666667 0.8333333
0.16666667 0.6666667 0.9166667
0.16666667 0.75 0.0
0.16666667 0.75 0.08333333
0.16666667 0.75 0.16666667
0.16666667 0.75 0.25
0.16666667 0.75 0.33333334
0.16666667 0.75 0.41666666
0.16666667 0.75 0.5
0.16666667 0.75 0.5833333
0.16666667 0.75 0.6666667
0.16666667 0.75 0.75
0.16666667 0.75 0.8333333
0.16666667 0.75 0.9166667
0.16666667 0.8333333 0.0
0.16666667 0.8333333 0.08333333
0.16666667 0.8333333 0.16666667
0.16666667 0.8333333 0.25
0.16666667 0.8333333 0.33333334
0.16666667 0.8333333 0.41666666
0.16666667 0.8333333 0.5
0.16666667 0.8333333 0.5833333
0.16666667 0.8333333 0.6666667
0.16666667 0.8333333 0.75
0.16666667 0.8333333 0.8333333
0.16666667 0.8333333 0.9166667
0.16666667 0.9166667 0.0
0.16666667 0.9166667 0.08333333
0.16666667 0.9166667 0.16666667
0.16666667 0.9166667 0.25
0.16666667 0.9166667 0.33333334
0.16666667 0.9166667 0.41666666
0.16666667 0.9166667 0.5
0.16666667 0.9166667 0.5833333
0.16666667 0.9166667 0.6666667
0.16666667 0.9166667 0.75
0.16666667 0.9166667 0.8333333
0.16666667 0.9166667 0.9166667
0.25 0.0 0.0
0.25 0.0 0.08333333
0.25 0.0 0.16666667
0.25 0.0 0.25
0.25 0.0 0.33333334
0.25 0.0 0.41666666
0.25 0.0 0.5
0.25 0.0 0.5833333
0.25 0.0 0.6666667
0.25 0.0 0.75
0.25 0.0 0.8333333
0.25 0.0 0.9166667
0.25 0.08333333 0.0
0.25 0.08333333 0.08333333
0.25 0.08333333 0.16666667
0.25 0.08333333 0.25
0.25 0.08333333 0.33333334
0.25 0.08333333 0.41666666
0.25 0.08333333 0.5
0.25 0.08333333 0.5833333
0.25 0.08333333 0.6666667
0.25 0.08333333 0.75
0.25 0.08333333 0.8333333
0.25 0.08333333 0.9166667
0.25 0.16666667 0.0
0.25 0.16666667 0.08333333
0.25 0.16666667 0.16666667
0.25 0.16666667 0.25
0.25 0.16666667 0.33333334
0.25 0.16666667 0.41666666
0.25 0.16666667 0.5
0.25 0.16666667 0.5833333
0.25 0.16666667 0.6666667
0.25 0.16666667 0.75
0.25 0.16666667 0.8333333
0.25 0.16666667 0.9166667
0.25 0.25 0.0
0.25 0.25 0.08333333
0.25 0.25 0.16666667
0.25 0.25 0.25
0.25 0.25 0.33333334
0.25 0.25 0.41666666
0.25 0.25 0.5
0.25 0.25 0.5833333
0.25 0.25 0.6666667
0.25 0.25 0.75
0.25 0.25 0.8333333
0.25 0.25 0.9166667
0.25 0.33333334 0.0
0.25 0.33333334 0.08333333
0.25 0.33333334 0.16666667
0.25 0.33333334 0.25
0.25 0.33333334 0.33333334
0.25 0.33333334 0.41666666
0.25 0.33333334 0.5
0.25 0.33333334 0.5833333
0.25 0.33333334 0.6666667
0.25 0.33333334 0.75
0.25 0.33333334 0.8333333
0.25 0.33333334 0.9166667
0.25 0.41666666 0.0
0.25 0.41666666 0.08333333
0.25 0.41666666 0.16666667
0.25 0.41666666 0.25
0.25 0.41666666 0.33333334
0.25 0.41666666 0.41666666
0.25 0.41666666 0.5
0.25 0.41666666 0.5833333
0.25 0.41666666 0.6666667
0.25 0.41666666 0.75
0.25 0.41666666 0.8333333
0.25 0.41666666 0.9166667
0.25 0.5 0.0
0.25 0.5 0.08333333
0.25 0.5 0.16666667
0.25 0.5 0.25
0.25 0.5 0.33333334
0.25 0.5 0.41666666
0.25 0.5 0.5
0.25 0.5 0.5833333
0.25 0.5 0.6666667
0.25 0.5 0.75
0.25 0.5 0.8333333
0.25 0.5 0.9166667
0.25 0.5833333 0.0
0.25 0.5833333 0.08333333
0.25 0.5833333 0.16666667
0.25 0.5833333 0.25
0.25 0.5833333 0.33333334
0.25 0.5833333 0.41666666
0.25 0.5833333 0.5
0.25 0.5833333 0.5833333
0.25 0.5833333 0.6666667
0.25 0.5833333 0.75
0.25 0.5833333 0.8333333
0.25 0.5833333 0.9166667
0.25 0.6666667 0.0
0.25 0.6666667 0.08333333
0.25 0.6666667 0.16666667
0.25 0.6666667 0.25
0.25 0.6666667 0.33333334
0.25 0.6666667 0.41666666
0.25 0.6666667 0.5
0.25 0.6666667 0.5833333
0.25 0.6666667 0.6666667
0.25 0.6666667 0.75
0.25 0.6666667 0.8333333
0.25 0.6666667 0.9166667
0.25 0.75 0.0
0.25 0.75 0.08333333
0.25 0.75 0.16666667
0.25 0.75 0.25
0.25 0.75 0.33333334
0.25 0.75 0.41666666
0.25 0.75 0.5
0.25 0.75 0.5833333
0.25 0.75 0.6666667
0.25 0.75 0.75
0.25 0.75 0.8333333
0.25 0.75 0.9166667
0.25 0.8333333 0.0
0.25 0.8333333 0.08333333
0.25 0.8333333 0.16666667
0.25 0.8333333 0.25
0.25 0.8333333 0.33333334
0.25 0.8333333 0.41666666
0.25 0.8333333 0.5
0.25 0.8333333 0.5833333
0.25 0.8333333 0.6666667
0.25 0.8333333 0.75
0.25 0.8333333 0.8333333
0.25 0.8333333 0.9166667
0.25 0.9166667 0.0
0.25 0.9166667 0.08333333
0.25 0.9166667 0.16666667
0.25 0.9166667 0.25
0.25 0.9166667 0.33333334
0.25 0.9166667 0.41666666
0.25 0.9166667 0.5
0.25 0.9166667 0.5833333
0.25 0.9166667 0.6666667
0.25 0.9166667 0.75
0.25 0.9166667 0.8333333
0.25 0.9166667 0.9166667
0.33333334 0.0 0.0
0.33333334 0.0 0.08333333
0.33333334 0.0 0.16666667
0.33333334 0.0 0.25
0.33333334 0.0 0.33333334
0.33333334 0.0 0.41666666
0.33333334 0.0 0.5
0.33333334 0.0 0.5833333
0.33333334 0.0 0.6666667
0.33333334 0.0 0.75
0.33333334 0.0 0.8333333
0.33333334 0.0 0.9166667
0.33333334 0.08333333 0.0
0.33333334 0.08333333 0.08333333
0.33333334 0.08333333 0.16666667
0.33333334 0.08333333 0.25
0.33333334 0.08333333 0.33333334
0.33333334 0.08333333 0.41666666
0.33333334 0.08333333 0.5
0.33333334 0.08333333 0.5833333
0.33333334 0.08333333 0.6666667
0.33333334 0.08333333 0.75
0.33333334 0.08333333 0.8333333
0.33333334 0.08333333 0.9166667
0.33333334 0.16666667 0.0
0.33333334 0.16666667 0.08333333
0.33333334 0.16666667 0.16666667
0.33333334 0.16666667 0.25
0.33333334 0.16666667 0.33333334
0.33333334 0.16666667 0.41666666
0.33333334 0.16666667 0.5
0.33333334 0.16666667 0.5833333
0.33333334 0.16666667 0.6666667
0.33333334 0.16666667 0.75
0.33333334 0.16666667 0.8333333
0.33333334 0.16666667 0.9166667
0.33333334 0.25 0.0
0.33333334 0.25 0.08333333
0.33333334 0.25 0.16666667
0.33333334 0.25 0.25
0.33333334 0.25 0.33333334
0.33333334 0.25 0.41666666
0.33333334 0.25 0.5
0.33333334 0.25 0.5833333
0.33333334 0.25 0.6666667
0.33333334 0.25 0.75
0.33333334 0.25 0.8333333
0.33333334 0.25 0.9166667
0.33333334 0.33333334 0.0
0.33333334 0.33333334 0.08333333
0.33333334 0.33333334 0.16666667
0.33333334 0.33333334 0.25
0.33333334 0.33333334 0.33333334
0.33333334 0.33333334 0.41666666
0.33333334 0.33333334 0.5
0.33333334 0.33333334 0.5833333
0.33333334 0.33333334 0.6666667
0.33333334 0.33333334 0.75
0.33333334 0.33333334 0.8333333
0.33333334 0.33333334 0.9166667
0.33333334 0.41666666 0.0
0.33333334 0.41666666 0.08333333
0.33333334 0.41666666 0.16666667
0.33333334 0.41666666 0.25
0.33333334 0.41666666 0.33333334
0.33333334 0.41666666 0.41666666
0.33333334 0.41666666 0.5
0.33333334 0.41666666 0.5833333
0.33333334 0.41666666 0.6666667
0.33333334 0.41666666 0.75
0.33333334 0.41666666 0.8333333
0.33333334 0.41666666 0.9166667
0.33333334 0.5 0.0
0.33333334 0.5 0.08333333
0.33333334 0.5 0.16666667
0.33333334 0.5 0.25
0.33333334 0.5 0.33333334
0.33333334 0.5 0.41666666
0.33333334 0.5 0.5
0.33333334 0.5 0.5833333
0.33333334 0.5 0.6666667
0.33333334 0.5 0.75
0.33333334 0.5 0.8333333
0.33333334 0.5 0.9166667
0.33333334 0.5833333 0.0
0.33333334 0.5833333 0.08333333
0.33333334 0.5833333 0.16666667
0.33333334 0.5833333 0.25
0.33333334 0.5833333 0.33333334
0.33333334 0.5833333 0.41666666
0.33333334 0.5833333 0.5
0.33333334 0.5833333 0.5833333
0.33333334 0.5833333 0.6666667
0.33333334 0.5833333 0.75
0.33333334 0.5833333 0.8333333
0.33333334 0.5833333 0.9166667
0.33333334 0.6666667 0.0
0.33333334 0.6666667 0.08333333
0.33333334 0.6666667 0.16666667
0.33333334 0.6666667 0.25
0.33333334 0.6666667 0.33333334
0.33333334 0.6666667 0.41666666
0.33333334 0.6666667 0.5
0.33333334 0.6666667 0.5833333
0.33333334 0.6666667 0.6666667
0.33333334 0.6666667 0.75
0.33333334 0.6666667 0.8333333
0.33333334 0.6666667 0.9166667
0.33333334 0.75 0.0
0.33333334 0.75 0.08333333
0.33333334 0.75 0.16666667
0.33333334 0.75 0.25
0.33333334 0.75 0.33333334
0.33333334 0.75 0.41666666
0.33333334 0.75 0.5
0.33333334 0.75 0.5833333
0.33333334 0.75 0.6666667
0.33333334 0.75 0.75
0.33333334 0.75 0.8333333
0.33333334 0.75 0.9166667
0.33333334 0.8333333 0.0
0.33333334 0.8333333 0.08333333
0.33333334 0.8333333 0.16666667
0.33333334 0.8333333 0.25
0.33333334 0.8333333 0.33333334
0.33333334 0.8333333 0.41666666
0.33333334 0.8333333 0.5
0.33333334 0.8333333 0.5833333
0.33333334 0.8333333 0.6666667
0.33333334 0.8333333 0.75
0.33333334 0.8333333 0.8333333
0.33333334 0.8333333 0.9166667
0.33333334 0.9166667 0.0
0.33333334 0.9166667 0.08333333
0.33333334 0.9166667 0.16666667
0.33333334 0.9166667 0.25
0.33333334 0.9166667 0.33333334
0.33333334 0.9166667 0.41666666
0.33333334 0.9166667 0.5
0.33333334 0.9166667 0.5833333
0.33333334 0.9166667 0.6666667
0.33333334 0.9166667 0.75
0.33333334 0.9166667 0.8333333
0.33333334 0.9166667 0.9166667
0.41666666 0.0 0.0
0.41666666 0.0 0.08333333
0.41666666 0.0 0.16666667
0.41666666 0.0 0.25
0.41666666 0.0 0.33333334
0.41666666 0.0 0.41666666
0.41666666 0.0 0.5
0.41666666 0.0 0.5833333
0.41666666 0.0 0.6666667
0.41666666 0.0 0.75
0.41666666 0.0 0.8333333
0.41666666 0.0 0.9166667
0.41666666 0.08333333 0.0
0.41666666 0.08333333 0.08333333
0.41666666 0.08333333 0.16666667
0.41666666 0.08333333 0.25
0.41666666 0.08333333 0.33333334
0.41666666 0.08333333 0.41666666
0.41666666 0.08333333 0.5
0.41666666 0.08333333 0.5833333
0.41666666 0.08333333 0.6666667
0.41666666 0.08333333 0.75
0.41666666 0.08333333 0.8333333
0.41666666 0.08333333 0.9166667
0.41666666 0.16666667 0.0
0.41666666 0.16666667 0.08333333
0.41666666 0.16666667 0.16666667
0.41666666 0.16666667 0.25
0.41666666 0.16666667 0.33333334
0.41666666 0.16666667 0.41666666
0.41666666 0.16666667 0.5
0.41666666 0.16666667 0.5833333
0.41666666 0.16666667 0.6666667
0.41666666 0.16666667 0.75
0.41666666 0.16666667 0.8333333
0.41666666 0.16666667 0.9166667
0.41666666 0.25 0.0
0.41666666 0.25 0.08333333
0.41666666 0.25 0.16666667
0.41666666 0.25 0.25
0.41666666 0.25 0.33333334
0.41666666 0.25 0.41666666
0.41666666 0.25 0.5
0.41666666 0.25 0.5833333
0.41666666 0.25 0.6666667
0.41666666 0.25 0.75
0.41666666 0.25 0.8333333
0.41666666 0.25 0.9166667
0.41666666 0.33333334 0.0
0.41666666 0.33333334 0.08333333
0.41666666 0.33333334 0.16666667
0.41666666 0.33333334 0.25
0.41666666 0.33333334 0.33333334
0.41666666 0.33333334 0.41666666
0.41666666 0.33333334 0.5
0.41666666 0.33333334 0.5833333
0.41666666 0.33333334 0.6666667
0.41666666 0.33333334 0.75
0.41666666 0.33333334 0.8333333
0.41666666 0.33333334 0.9166667
0.41666666 0.41666666 0.0
0.41666666 0.41666666 0.08333333
0.41666666 0.41666666 0.16666667
0.41666666 0.41666666 0.25
0.41666666 0.41666666 0.33333334
0.41666666 0.41666666 0.41666666
0.41666666 0.41666666 0.5
0.41666666 0.41666666 0.5833333
0.41666666 0.41666666 0.6666667
0.41666666 0.41666666 0.75
0.41666666 0.41666666 0.8333333
0.41666666 0.41666666 0.9166667
0.41666666 0.5 0.0
0.41666666 0.5 0.08333333
0.41666666 0.5 0.16666667
0.41666666 0.5 0.25
0.41666666 0.5 0.33333334
0.41666666 0.5 0.41666666
0.41666666 0.5 0.5
0.41666666 0.5 0.5833333
0.41666666 0.5 0.6666667
0.41666666 0.5 0.75
0.41666666 0.5 0.8333333
0.41666666 0.5 0.9166667
0.41666666 0.5833333 0.0
0.41666666 0.5833333 0.08333333
0.41666666 0.5833333 0.16666667
0.41666666 0.5833333 0.25
0.41666666 0.5833333 0.33333334
0.41666666 0.5833333 0.41666666
0.41666666 0.5833333 0.5
0.41666666 0.5833333 0.5833333
0.41666666 0.5833333 0.6666667
0.41666666 0.5833333 0.75
0.41666666 0.5833333 0.8333333
0.41666666 0.5833333 0.9166667
0.41666666 0.6666667 0.0
0.41666666 0.6666667 0.08333333
0.41666666 0.6666667 0.16666667
0.41666666 0.6666667 0.25
0.41666666 0.6666667 0.33333334
0.41666666 0.6666667 0.41666666
0.41666666 0.6666667 0.5
0.41666666 0.6666667 0.5833333
0.41666666 0.6666667 0.6666667
0.41666666 0.6666667 0.75
0.41666666 0.6666667 0.8333333
0.41666666 0.6666667 0.9166667
0.41666666 0.75 0.0
0.41666666 0.75 0.08333333
0.41666666 0.75 0.16666667
0.41666666 0.75 0.25
0.41666666 0.75 0.33333334
0.41666666 0.75 0.41666666
0.41666666 0.75 0.5
0.41666666 0.75 0.5833333
0.41666666 0.75 0.6666667
0.41666666 0.75 0.75
0.41666666 0.75 0.8333333
0.41666666 0.75 0.9166667
0.41666666 0.8333333 0.0
0.41666666 0.8333333 0.08333333
0.41666666 0.8333333 0.16666667
0.41666666 0.8333333 0.25
0.41666666 0.8333333 0.33333334
0.41666666 0.8333333 0.41666666
0.41666666 0.8333333 0.5
0.41666666 0.8333333 0.5833333
0.41666666 0.8333333 0.6666667
0.41666666 0.8333333 0.75
0.41666666 0.8333333 0.8333333
0.41666666 0.8333333 0.9166667
0.41666666 0.9166667 0.0
0.41666666 0.9166667 0.08333333
0.41666666 0.9166667 0.16666667
0.41666666 0.9166667 0.25
0.41666666 0.9166667 0.33333334
0.41666666 0.9166667 0.41666666
0.41666666 0.9166667 0.5
0.41666666 0.9166667 0.5833333
0.41666666 0.9166667 0.6666667
0.41666666 0.9166667 0.75
0.41666666 0.9166667 0.8333333
0.41666666 0.9166667 0.9166667
0.5 0.0 0.0
0.5 0.0 0.08333333
0.5 0.0 0.16666667
0.5 0.0 0.25
0.5 0.0 0.33333334
0.5 0.0 0.41666666
0.5 0.0 0.5
0.5 0.0 0.5833333
0.5 0.0 0.6666667
0.5 0.0 0.75
0.5 0.0 0.8333333
0.5 0.0 0.9166667
0.5 0.08333333 0.0
0.5 0.08333333 0.08333333
0.5 0.08333333 0.16666667
0.5 0.08333333 0.25
0.5 0.08333333 0.33333334
0.5 0.08333333 0.41666666
0.5 0.08333333 0.5
0.5 0.08333333 0.5833333
0.5 0.08333333 0.6666667
0.5 0.08333333 0.75
0.5 0.08333333 0.8333333
0.5 0.08333333 0.9166667
0.5 0.16666667 0.0
0.5 0.16666667 0.08333333
0.5 0.16666667 0.16666667
0.5 0.16666667 0.25
0.5 0.16666667 0.33333334
0.5 0.16666667 0.41666666
0.5 0.16666667 0.5
0.5 0.16666667 0.5833333
0.5 0.16666667 0.6666667
0.5 0.16666667 0.75
0.5 0.16666667 0.8333333
0.5 0.16666667 0.9166667
0.5 0.25 0.0
0.5 0.25 0.08333333
0.5 0.25 0.16666667
0.5 0.25 0.25
0.5 0.25 0.33333334
0.5 0.25 0.41666666
0.5 0.25 0.5
0.5 0.25 0.5833333
0.5 0.25 0.6666667
0.5 0.25 0.75
0.5 0.25 0.8333333
0.5 0.25 0.9166667
0.5 0.33333334 0.0
0.5 0.33333334 0.08333333
0.5 0.33333334 0.16666667
0.5 0.33333334 0.25
0.5 0.33333334 0.33333334
0.5 0.33333334 0.41666666
0.5 0.33333334 0.5
0.5 0.33333334 0.5833333
0.5 0.33333334 0.6666667
0.5 0.33333334 0.75
0.5 0.33333334 0.8333333
0.5 0.33333334 0.9166667
0.5 0.41666666 0.0
0.5 0.41666666 0.08333333
0.5 0.41666666 0.16666667
0.5 0.41666666 0.25
0.5 0.41666666 0.33333334
0.5 0.41666666 0.41666666
0.5 0.41666666 0.5
0.5 0.41666666 0.5833333
0.5 0.41666666 0.6666667
0.5 0.41666666 0.75
0.5 0.41666666 0.8333333
0.5 0.41666666 0.9166667
0.5 0.5 0.0
0.5 0.5 0.08333333
0.5 0.5 0.16666667
0.5 0.5 0.25
0.5 0.5 0.33333334
0.5 0.5 0.41666666
0.5 0.5 0.5
0.5 0.5 0.5833333
0.5 0.5 0.6666667
0.5 0.5 0.75
0.5 0.5 0.8333333
0.5 0.5 0.9166667
0.5 0.5833333 0.0
0.5 0.5833333 0.08333333
0.5 0.5833333 0.16666667
0.5 0.5833333 0.25
0.5 0.5833333 0.33333334
0.5 0.5833333 0.41666666
0.5 0.5833333 0.5
0.5 0.5833333 0.5833333
0.5 0.5833333 0.6666667
0.5 0.5833333 0.75
0.5 0.5833333 0.8333333
0.5 0.5833333 0.9166667
0.5 0.6666667 0.0
0.5 0.6666667 0.08333333
0.5 0.6666667 0.16666667
0.5 0.6666667 0.25
0.5 0.6666667 0.33333334
0.5 0.6666667 0.41666666
0.5 0.6666667 0.5
0.5 0.6666667 0.5833333
0.5 0.6666667 0.6666667
0.5 0.6666667 0.75
0.5 0.6666667 0.8333333
0.5 0.6666667 0.9166667
0.5 0.75 0.0
0.5 0.75 0.08333333
0.5 0.75 0.16666667
0.5 0.75 0.25
0.5 0.75 0.33333334
0.5 0.75 0.41666666
0.5 0.75 0.5
0.5 0.75 0.5833333
0.5 0.75 0.6666667
0.5 0.75 0.75
0.5 0.75 0.8333333
0.5 0.75 0.9166667
0.5 0.8333333 0.0
0.5 0.8333333 0.08333333
0.5 0.8333333 0.16666667
0.5 0.8333333 0.25
0.5 0.8333333 0.33333334
0.5 0.8333333 0.41666666
0.5 0.8333333 0.5
0.5 0.8333333 0.5833333
0.5 0.8333333 0.6666667
0.5 0.8333333 0.75
0.5 0.8333333 0.8333333
0.5 0.8333333 0.9166667
0.5 0.9166667 0.0
0.5 0.9166667 0.08333333
0.5 0.9166667 0.16666667
0.5 0.9166667 0.25
0.5 0.9166667 0.33333334
0.5 0.9166667 0.41666666
0.5 0.9166667 0.5
0.5 0.9166667 0.5833333
0.5 0.9166667 0.6666667
0.5 0.9166667 0.75
0.5 0.9166667 0.8333333
0.5 0.9166667 0.9166667
0.5833333 0.0 0.0
0.5833333 0.0 0.08333333
0.5833333 0.0 0.16666667
0.5833333 0.0 0.25
0.5833333 0.0 0.33333334
0.5833333 0.0 0.41666666
0.5833333 0.0 0.5
0.5833333 0.0 0.5833333
0.5833333 0.0 0.6666667
0.5833333 0.0 0.75
0.5833333 0.0 0.8333333
0.5833333 0.0 0.9166667
0.5833333 0.08333333 0.0
0.5833333 0.08333333 0.08333333
0.5833333 0.08333333 0.16666667
0.5833333 0.08333333 0.25
0.5833333 0.08333333 0.33333334
0.5833333 0.08333333 0.41666666
0.5833333 0.08333333 0.5
0.5833333 0.08333333 0.5833333
0.5833333 0.08333333 0.6666667
0.5833333 0.08333333 0.75
0.5833333 0.08333333 0.8333333
0.5833333 0.08333333 0.9166667
0.5833333 0.16666667 0.0
0.5833333 0.16666667 0.08333333
0.5833333 0.16666667 0.16666667
0.5833333 0.16666667 0.25
0.5833333 0.16666667 0.33333334
0.5833333 0.16666667 0.41666666
0.5833333 0.16666667 0.5
0.5833333 0.16666667 0.5833333
0.5833333 0.16666667 0.6666667
0.5833333 0.16666667 0.75
0.5833333 0.16666667 0.8333333
0.5833333 0.16666667 0.9166667
0.5833333 0.25 0.0
0.5833333 0.25 0.08333333
0.5833333 0.25 0.16666667
0.5833333 0.25 0.25
0.5833333 0.25 0.33333334
0.5833333 0.25 0.41666666
0.5833333 0.25 0.5
0.5833333 0.25 0.5833333
0.5833333 0.25 0.6666667
0.5833333 0.25 0.75
0.5833333 0.25 0.8333333
0.5833333 0.25 0.9166667
0.5833333 0.33333334 0.0
0.5833333 0.33333334 0.08333333
0.5833333 0.33333334 0.16666667
0.5833333 0.33333334 0.25
0.5833333 0.33333334 0.33333334
0.5833333 0.33333334 0.41666666
0.5833333 0.33333334 0.5
0.5833333 0.33333334 0.5833333
0.5833333 0.33333334 0.6666667
0.5833333 0.33333334 0.75
0.5833333 0.33333334 0.8333333
0.5833333 0.33333334 0.9166667
0.5833333 0.41666666 0.0
0.5833333 0.41666666 0.08333333
0.5833333 0.41666666 0.16666667
0.5833333 0.41666666 0.25
0.5833333 0.41666666 0.33333334
0.5833333 0.41666666 0.41666666
0.5833333 0.41666666 0.5
0.5833333 0.41666666 0.5833333
0.5833333 0.41666666 0.6666667
0.5833333 0.41666666 0.75
0.5833333 0.41666666 0.8333333
0.5833333 0.41666666 0.9166667
0.5833333 0.5 0.0
0.5833333 0.5 0.08333333
0.5833333 0.5 0.16666667
0.5833333 0.5 0.25
0.5833333 0.5 0.33333334
0.5833333 0.5 0.41666666
0.5833333 0.5 0.5
0.5833333 0.5 0.5833333
0.5833333 0.5 0.6666667
0.5833333 0.5 0.75
0.5833333 0.5 0.8333333
0.5833333 0.5 0.9166667
0.5833333 0.5833333 0.0
0.5833333 0.5833333 0.08333333
0.5833333 0.5833333 0.16666667
0.5833333 0.5833333 0.25
0.5833333 0.5833333 0.33333334
0.5833333 0.5833333 0.41666666
0.5833333 0.5833333 0.5
0.5833333 0.5833333 0.5833333
0.5833333 0.5833333 0.6666667
0.5833333 0.5833333 0.75
0.5833333 0.5833333 0.8333333
0.5833333 0.5833333 0.9166667
0.5833333 0.6666667 0.0
0.5833333 0.6666667 0.08333333
0.5833333 0.6666667 0.16666667
0.5833333 0.6666667 0.25
0.5833333 0.6666667 0.33333334
0.5833333 0.6666667 0.41666666
0.5833333 0.6666667 0.5
0.5833333 0.6666667 0.5833333
0.5833333 0.6666667 0.6666667
0.5833333 0.6666667 0.75
0.5833333 0.6666667 0.8333333
0.5833333 0.6666667 0.9166667
0.5833333 0.75 0.0
0.5833333 0.75 0.08333333
0.5833333 0.75 0.16666667
0.5833333 0.75 0.25
0.5833333 0.75 0.33333334
0.5833333 0.75 0.41666666
0.5833333 0.75 0.5
0.5833333 0.75 0.5833333
0.5833333 0.75 0.6666667
0.5833333 0.75 0.75
0.5833333 0.75 0.8333333
0.5833333 0.75 0.9166667
0.5833333 0.8333333 0.0
0.5833333 0.8333333 0.08333333
0.5833333 0.8333333 0.16666667
0.5833333 0.8333333 0.25
0.5833333 0.8333333 0.33333334
0.5833333 0.8333333 0.41666666
0.5833333 0.8333333 0.5
0.5833333 0.8333333 0.5833333
0.5833333 0.8333333 0.6666667
0.5833333 0.8333333 0.75
0.5833333 0.8333333 0.8333333
0.5833333 0.8333333 0.9166667
0.5833333 0.9166667 0.0
0.5833333 0.9166667 0.08333333
0.5833333 0.9166667 0.16666667
0.5833333 0.9166667 0.25
0.5833333 0.9166667 0.33333334
0.5833333 0.9166667 0.41666666
0.5833333 0.9166667 0.5
0.5833333 0.9166667 0.5833333
0.5833333 0.9166667 0.6666667
0.5833333 0.9166667 0.75
0.5833333 0.9166667 0.8333333
0.5833333 0.9166667 0.9166667
0.6666667 0.0 0.0