&projwfc
  prefix = 'Si'
  Emin = -3.9729
  Emax = 8.0271
  DeltaE = 0.1
  ngauss = 0
  outdir = '/home/ponet/.julia/dev/DFControl/docs/build/guide/Job2/outputs'
  degauss = 0.0
/

K_POINTS (crystal)
216
 0.0 0.0 0.0 0.004629629629629629
 0.16666666666666666 0.0 0.0 0.004629629629629629
 0.3333333333333333 0.0 0.0 0.004629629629629629
 0.5 0.0 0.0 0.004629629629629629
 0.6666666666666666 0.0 0.0 0.004629629629629629
 0.8333333333333334 0.0 0.0 0.004629629629629629
 0.0 0.16666666666666666 0.0 0.004629629629629629
 0.16666666666666666 0.16666666666666666 0.0 0.004629629629629629
 0.3333333333333333 0.16666666666666666 0.0 0.004629629629629629
 0.5 0.16666666666666666 0.0 0.004629629629629629
 0.6666666666666666 0.16666666666666666 0.0 0.004629629629629629
 0.8333333333333334 0.16666666666666666 0.0 0.004629629629629629
 0.0 0.3333333333333333 0.0 0.004629629629629629
 0.16666666666666666 0.3333333333333333 0.0 0.004629629629629629
 0.3333333333333333 0.3333333333333333 0.0 0.004629629629629629
 0.5 0.3333333333333333 0.0 0.004629629629629629
 0.6666666666666666 0.3333333333333333 0.0 0.004629629629629629
 0.8333333333333334 0.3333333333333333 0.0 0.004629629629629629
 0.0 0.5 0.0 0.004629629629629629
 0.16666666666666666 0.5 0.0 0.004629629629629629
 0.3333333333333333 0.5 0.0 0.004629629629629629
 0.5 0.5 0.0 0.004629629629629629
 0.6666666666666666 0.5 0.0 0.004629629629629629
 0.8333333333333334 0.5 0.0 0.004629629629629629
 0.0 0.6666666666666666 0.0 0.004629629629629629
 0.16666666666666666 0.6666666666666666 0.0 0.004629629629629629
 0.3333333333333333 0.6666666666666666 0.0 0.004629629629629629
 0.5 0.6666666666666666 0.0 0.004629629629629629
 0.6666666666666666 0.6666666666666666 0.0 0.004629629629629629
 0.8333333333333334 0.6666666666666666 0.0 0.004629629629629629
 0.0 0.8333333333333334 0.0 0.004629629629629629
 0.16666666666666666 0.8333333333333334 0.0 0.004629629629629629
 0.3333333333333333 0.8333333333333334 0.0 0.004629629629629629
 0.5 0.8333333333333334 0.0 0.004629629629629629
 0.6666666666666666 0.8333333333333334 0.0 0.004629629629629629
 0.8333333333333334 0.8333333333333334 0.0 0.004629629629629629
 0.0 0.0 0.16666666666666666 0.004629629629629629
 0.16666666666666666 0.0 0.16666666666666666 0.004629629629629629
 0.3333333333333333 0.0 0.16666666666666666 0.004629629629629629
 0.5 0.0 0.16666666666666666 0.004629629629629629
 0.6666666666666666 0.0 0.16666666666666666 0.004629629629629629
 0.8333333333333334 0.0 0.16666666666666666 0.004629629629629629
 0.0 0.16666666666666666 0.16666666666666666 0.004629629629629629
 0.16666666666666666 0.16666666666666666 0.16666666666666666 0.004629629629629629
 0.3333333333333333 0.16666666666666666 0.16666666666666666 0.004629629629629629
 0.5 0.16666666666666666 0.16666666666666666 0.004629629629629629
 0.6666666666666666 0.16666666666666666 0.16666666666666666 0.004629629629629629
 0.8333333333333334 0.16666666666666666 0.16666666666666666 0.004629629629629629
 0.0 0.3333333333333333 0.16666666666666666 0.004629629629629629
 0.16666666666666666 0.3333333333333333 0.16666666666666666 0.004629629629629629
 0.3333333333333333 0.3333333333333333 0.16666666666666666 0.004629629629629629
 0.5 0.3333333333333333 0.16666666666666666 0.004629629629629629
 0.6666666666666666 0.3333333333333333 0.16666666666666666 0.004629629629629629
 0.8333333333333334 0.3333333333333333 0.16666666666666666 0.004629629629629629
 0.0 0.5 0.16666666666666666 0.004629629629629629
 0.16666666666666666 0.5 0.16666666666666666 0.004629629629629629
 0.3333333333333333 0.5 0.16666666666666666 0.004629629629629629
 0.5 0.5 0.16666666666666666 0.004629629629629629
 0.6666666666666666 0.5 0.16666666666666666 0.004629629629629629
 0.8333333333333334 0.5 0.16666666666666666 0.004629629629629629
 0.0 0.6666666666666666 0.16666666666666666 0.004629629629629629
 0.16666666666666666 0.6666666666666666 0.16666666666666666 0.004629629629629629
 0.3333333333333333 0.6666666666666666 0.16666666666666666 0.004629629629629629
 0.5 0.6666666666666666 0.16666666666666666 0.004629629629629629
 0.6666666666666666 0.6666666666666666 0.16666666666666666 0.004629629629629629
 0.8333333333333334 0.6666666666666666 0.16666666666666666 0.004629629629629629
 0.0 0.8333333333333334 0.16666666666666666 0.004629629629629629
 0.16666666666666666 0.8333333333333334 0.16666666666666666 0.004629629629629629
 0.3333333333333333 0.8333333333333334 0.16666666666666666 0.004629629629629629
 0.5 0.8333333333333334 0.16666666666666666 0.004629629629629629
 0.6666666666666666 0.8333333333333334 0.16666666666666666 0.004629629629629629
 0.8333333333333334 0.8333333333333334 0.16666666666666666 0.004629629629629629
 0.0 0.0 0.3333333333333333 0.004629629629629629
 0.16666666666666666 0.0 0.3333333333333333 0.004629629629629629
 0.3333333333333333 0.0 0.3333333333333333 0.004629629629629629
 0.5 0.0 0.3333333333333333 0.004629629629629629
 0.6666666666666666 0.0 0.3333333333333333 0.004629629629629629
 0.8333333333333334 0.0 0.3333333333333333 0.004629629629629629
 0.0 0.16666666666666666 0.3333333333333333 0.004629629629629629
 0.16666666666666666 0.16666666666666666 0.3333333333333333 0.004629629629629629
 0.3333333333333333 0.16666666666666666 0.3333333333333333 0.004629629629629629
 0.5 0.16666666666666666 0.3333333333333333 0.004629629629629629
 0.6666666666666666 0.16666666666666666 0.3333333333333333 0.004629629629629629
 0.8333333333333334 0.16666666666666666 0.3333333333333333 0.004629629629629629
 0.0 0.3333333333333333 0.3333333333333333 0.004629629629629629
 0.16666666666666666 0.3333333333333333 0.3333333333333333 0.004629629629629629
 0.3333333333333333 0.3333333333333333 0.3333333333333333 0.004629629629629629
 0.5 0.3333333333333333 0.3333333333333333 0.004629629629629629
 0.6666666666666666 0.3333333333333333 0.3333333333333333 0.004629629629629629
 0.8333333333333334 0.3333333333333333 0.3333333333333333 0.004629629629629629
 0.0 0.5 0.3333333333333333 0.004629629629629629
 0.16666666666666666 0.5 0.3333333333333333 0.004629629629629629
 0.3333333333333333 0.5 0.3333333333333333 0.004629629629629629
 0.5 0.5 0.3333333333333333 0.004629629629629629
 0.6666666666666666 0.5 0.3333333333333333 0.004629629629629629
 0.8333333333333334 0.5 0.3333333333333333 0.004629629629629629
 0.0 0.6666666666666666 0.3333333333333333 0.004629629629629629
 0.16666666666666666 0.6666666666666666 0.3333333333333333 0.004629629629629629
 0.3333333333333333 0.6666666666666666 0.3333333333333333 0.004629629629629629
 0.5 0.6666666666666666 0.3333333333333333 0.004629629629629629
 0.6666666666666666 0.6666666666666666 0.3333333333333333 0.004629629629629629
 0.8333333333333334 0.6666666666666666 0.3333333333333333 0.004629629629629629
 0.0 0.8333333333333334 0.3333333333333333 0.004629629629629629
 0.16666666666666666 0.8333333333333334 0.3333333333333333 0.004629629629629629
 0.3333333333333333 0.8333333333333334 0.3333333333333333 0.004629629629629629
 0.5 0.8333333333333334 0.3333333333333333 0.004629629629629629
 0.6666666666666666 0.8333333333333334 0.3333333333333333 0.004629629629629629
 0.8333333333333334 0.8333333333333334 0.3333333333333333 0.004629629629629629
 0.0 0.0 0.5 0.004629629629629629
 0.16666666666666666 0.0 0.5 0.004629629629629629
 0.3333333333333333 0.0 0.5 0.004629629629629629
 0.5 0.0 0.5 0.004629629629629629
 0.6666666666666666 0.0 0.5 0.004629629629629629
 0.8333333333333334 0.0 0.5 0.004629629629629629
 0.0 0.16666666666666666 0.5 0.004629629629629629
 0.16666666666666666 0.16666666666666666 0.5 0.004629629629629629
 0.3333333333333333 0.16666666666666666 0.5 0.004629629629629629
 0.5 0.16666666666666666 0.5 0.004629629629629629
 0.6666666666666666 0.16666666666666666 0.5 0.004629629629629629
 0.8333333333333334 0.16666666666666666 0.5 0.004629629629629629
 0.0 0.3333333333333333 0.5 0.004629629629629629
 0.16666666666666666 0.3333333333333333 0.5 0.004629629629629629
 0.3333333333333333 0.3333333333333333 0.5 0.004629629629629629
 0.5 0.3333333333333333 0.5 0.004629629629629629
 0.6666666666666666 0.3333333333333333 0.5 0.004629629629629629
 0.8333333333333334 0.3333333333333333 0.5 0.004629629629629629
 0.0 0.5 0.5 0.004629629629629629
 0.16666666666666666 0.5 0.5 0.004629629629629629
 0.3333333333333333 0.5 0.5 0.004629629629629629
 0.5 0.5 0.5 0.004629629629629629
 0.6666666666666666 0.5 0.5 0.004629629629629629
 0.8333333333333334 0.5 0.5 0.004629629629629629
 0.0 0.6666666666666666 0.5 0.004629629629629629
 0.16666666666666666 0.6666666666666666 0.5 0.004629629629629629
 0.3333333333333333 0.6666666666666666 0.5 0.004629629629629629
 0.5 0.6666666666666666 0.5 0.004629629629629629
 0.6666666666666666 0.6666666666666666 0.5 0.004629629629629629
 0.8333333333333334 0.6666666666666666 0.5 0.004629629629629629
 0.0 0.8333333333333334 0.5 0.004629629629629629
 0.16666666666666666 0.8333333333333334 0.5 0.004629629629629629
 0.3333333333333333 0.8333333333333334 0.5 0.004629629629629629
 0.5 0.8333333333333334 0.5 0.004629629629629629
 0.6666666666666666 0.8333333333333334 0.5 0.004629629629629629
 0.8333333333333334 0.8333333333333334 0.5 0.004629629629629629
 0.0 0.0 0.6666666666666666 0.004629629629629629
 0.16666666666666666 0.0 0.6666666666666666 0.004629629629629629
 0.3333333333333333 0.0 0.6666666666666666 0.004629629629629629
 0.5 0.0 0.6666666666666666 0.004629629629629629
 0.6666666666666666 0.0 0.6666666666666666 0.004629629629629629
 0.8333333333333334 0.0 0.6666666666666666 0.004629629629629629
 0.0 0.16666666666666666 0.6666666666666666 0.004629629629629629
 0.16666666666666666 0.16666666666666666 0.6666666666666666 0.004629629629629629
 0.3333333333333333 0.16666666666666666 0.6666666666666666 0.004629629629629629
 0.5 0.16666666666666666 0.6666666666666666 0.004629629629629629
 0.6666666666666666 0.16666666666666666 0.6666666666666666 0.004629629629629629
 0.8333333333333334 0.16666666666666666 0.6666666666666666 0.004629629629629629
 0.0 0.3333333333333333 0.6666666666666666 0.004629629629629629
 0.16666666666666666 0.3333333333333333 0.6666666666666666 0.004629629629629629
 0.3333333333333333 0.3333333333333333 0.6666666666666666 0.004629629629629629
 0.5 0.3333333333333333 0.6666666666666666 0.004629629629629629
 0.6666666666666666 0.3333333333333333 0.6666666666666666 0.004629629629629629
 0.8333333333333334 0.3333333333333333 0.6666666666666666 0.004629629629629629
 0.0 0.5 0.6666666666666666 0.004629629629629629
 0.16666666666666666 0.5 0.6666666666666666 0.004629629629629629
 0.3333333333333333 0.5 0.6666666666666666 0.004629629629629629
 0.5 0.5 0.6666666666666666 0.004629629629629629
 0.6666666666666666 0.5 0.6666666666666666 0.004629629629629629
 0.8333333333333334 0.5 0.6666666666666666 0.004629629629629629
 0.0 0.6666666666666666 0.6666666666666666 0.004629629629629629
 0.16666666666666666 0.6666666666666666 0.6666666666666666 0.004629629629629629
 0.3333333333333333 0.6666666666666666 0.6666666666666666 0.004629629629629629
 0.5 0.6666666666666666 0.6666666666666666 0.004629629629629629
 0.6666666666666666 0.6666666666666666 0.6666666666666666 0.004629629629629629
 0.8333333333333334 0.6666666666666666 0.6666666666666666 0.004629629629629629
 0.0 0.8333333333333334 0.6666666666666666 0.004629629629629629
 0.16666666666666666 0.8333333333333334 0.6666666666666666 0.004629629629629629
 0.3333333333333333 0.8333333333333334 0.6666666666666666 0.004629629629629629
 0.5 0.8333333333333334 0.6666666666666666 0.004629629629629629
 0.6666666666666666 0.8333333333333334 0.6666666666666666 0.004629629629629629
 0.8333333333333334 0.8333333333333334 0.6666666666666666 0.004629629629629629
 0.0 0.0 0.8333333333333334 0.004629629629629629
 0.16666666666666666 0.0 0.8333333333333334 0.004629629629629629
 0.3333333333333333 0.0 0.8333333333333334 0.004629629629629629
 0.5 0.0 0.8333333333333334 0.004629629629629629
 0.6666666666666666 0.0 0.8333333333333334 0.004629629629629629
 0.8333333333333334 0.0 0.8333333333333334 0.004629629629629629
 0.0 0.16666666666666666 0.8333333333333334 0.004629629629629629
 0.16666666666666666 0.16666666666666666 0.8333333333333334 0.004629629629629629
 0.3333333333333333 0.16666666666666666 0.8333333333333334 0.004629629629629629
 0.5 0.16666666666666666 0.8333333333333334 0.004629629629629629
 0.6666666666666666 0.16666666666666666 0.8333333333333334 0.004629629629629629
 0.8333333333333334 0.16666666666666666 0.8333333333333334 0.004629629629629629
 0.0 0.3333333333333333 0.8333333333333334 0.004629629629629629
 0.16666666666666666 0.3333333333333333 0.8333333333333334 0.004629629629629629
 0.3333333333333333 0.3333333333333333 0.8333333333333334 0.004629629629629629
 0.5 0.3333333333333333 0.8333333333333334 0.004629629629629629
 0.6666666666666666 0.3333333333333333 0.8333333333333334 0.004629629629629629
 0.8333333333333334 0.3333333333333333 0.8333333333333334 0.004629629629629629
 0.0 0.5 0.8333333333333334 0.004629629629629629
 0.16666666666666666 0.5 0.8333333333333334 0.004629629629629629
 0.3333333333333333 0.5 0.8333333333333334 0.004629629629629629
 0.5 0.5 0.8333333333333334 0.004629629629629629
 0.6666666666666666 0.5 0.8333333333333334 0.004629629629629629
 0.8333333333333334 0.5 0.8333333333333334 0.004629629629629629
 0.0 0.6666666666666666 0.8333333333333334 0.004629629629629629
 0.16666666666666666 0.6666666666666666 0.8333333333333334 0.004629629629629629
 0.3333333333333333 0.6666666666666666 0.8333333333333334 0.004629629629629629
 0.5 0.6666666666666666 0.8333333333333334 0.004629629629629629
 0.6666666666666666 0.6666666666666666 0.8333333333333334 0.004629629629629629
 0.8333333333333334 0.6666666666666666 0.8333333333333334 0.004629629629629629
 0.0 0.8333333333333334 0.8333333333333334 0.004629629629629629
 0.16666666666666666 0.8333333333333334 0.8333333333333334 0.004629629629629629
 0.3333333333333333 0.8333333333333334 0.8333333333333334 0.004629629629629629
 0.5 0.8333333333333334 0.8333333333333334 0.004629629629629629
 0.6666666666666666 0.8333333333333334 0.8333333333333334 0.004629629629629629
 0.8333333333333334 0.8333333333333334 0.8333333333333334 0.004629629629629629

