&control
  prefix = 'Si'
  verbosity = 'high'
  calculation = 'nscf'
  outdir = './outputs'
  pseudo_dir = '.'
/

&system
  ibrav = 0
  nat = 8
  ntyp = 1
  ecutwfc = 20.0
/

&electrons
  conv_thr = 1.0e-6
/

ATOMIC_SPECIES
Si 28.0855 Si.UPF

CELL_PARAMETERS (angstrom)
5.4309401512146	0.0	0.0
0.0	5.4309401512146	0.0
0.0	0.0	5.4309401512146

ATOMIC_POSITIONS (crystal) 
Si 0.0 0.0 0.0
Si 0.0 0.5 0.5
Si 0.25 0.25 0.25
Si 0.5 0.0 0.5
Si 0.25 0.75 0.75
Si 0.75 0.75 0.25
Si 0.75 0.25 0.75
Si 0.5 0.5 0.0

K_POINTS (crystal)
1000
 0.0 0.0 0.0 0.001
 0.1 0.0 0.0 0.001
 0.2 0.0 0.0 0.001
 0.3 0.0 0.0 0.001
 0.4 0.0 0.0 0.001
 0.5 0.0 0.0 0.001
 0.6 0.0 0.0 0.001
 0.7 0.0 0.0 0.001
 0.8 0.0 0.0 0.001
 0.9 0.0 0.0 0.001
 0.0 0.1 0.0 0.001
 0.1 0.1 0.0 0.001
 0.2 0.1 0.0 0.001
 0.3 0.1 0.0 0.001
 0.4 0.1 0.0 0.001
 0.5 0.1 0.0 0.001
 0.6 0.1 0.0 0.001
 0.7 0.1 0.0 0.001
 0.8 0.1 0.0 0.001
 0.9 0.1 0.0 0.001
 0.0 0.2 0.0 0.001
 0.1 0.2 0.0 0.001
 0.2 0.2 0.0 0.001
 0.3 0.2 0.0 0.001
 0.4 0.2 0.0 0.001
 0.5 0.2 0.0 0.001
 0.6 0.2 0.0 0.001
 0.7 0.2 0.0 0.001
 0.8 0.2 0.0 0.001
 0.9 0.2 0.0 0.001
 0.0 0.3 0.0 0.001
 0.1 0.3 0.0 0.001
 0.2 0.3 0.0 0.001
 0.3 0.3 0.0 0.001
 0.4 0.3 0.0 0.001
 0.5 0.3 0.0 0.001
 0.6 0.3 0.0 0.001
 0.7 0.3 0.0 0.001
 0.8 0.3 0.0 0.001
 0.9 0.3 0.0 0.001
 0.0 0.4 0.0 0.001
 0.1 0.4 0.0 0.001
 0.2 0.4 0.0 0.001
 0.3 0.4 0.0 0.001
 0.4 0.4 0.0 0.001
 0.5 0.4 0.0 0.001
 0.6 0.4 0.0 0.001
 0.7 0.4 0.0 0.001
 0.8 0.4 0.0 0.001
 0.9 0.4 0.0 0.001
 0.0 0.5 0.0 0.001
 0.1 0.5 0.0 0.001
 0.2 0.5 0.0 0.001
 0.3 0.5 0.0 0.001
 0.4 0.5 0.0 0.001
 0.5 0.5 0.0 0.001
 0.6 0.5 0.0 0.001
 0.7 0.5 0.0 0.001
 0.8 0.5 0.0 0.001
 0.9 0.5 0.0 0.001
 0.0 0.6 0.0 0.001
 0.1 0.6 0.0 0.001
 0.2 0.6 0.0 0.001
 0.3 0.6 0.0 0.001
 0.4 0.6 0.0 0.001
 0.5 0.6 0.0 0.001
 0.6 0.6 0.0 0.001
 0.7 0.6 0.0 0.001
 0.8 0.6 0.0 0.001
 0.9 0.6 0.0 0.001
 0.0 0.7 0.0 0.001
 0.1 0.7 0.0 0.001
 0.2 0.7 0.0 0.001
 0.3 0.7 0.0 0.001
 0.4 0.7 0.0 0.001
 0.5 0.7 0.0 0.001
 0.6 0.7 0.0 0.001
 0.7 0.7 0.0 0.001
 0.8 0.7 0.0 0.001
 0.9 0.7 0.0 0.001
 0.0 0.8 0.0 0.001
 0.1 0.8 0.0 0.001
 0.2 0.8 0.0 0.001
 0.3 0.8 0.0 0.001
 0.4 0.8 0.0 0.001
 0.5 0.8 0.0 0.001
 0.6 0.8 0.0 0.001
 0.7 0.8 0.0 0.001
 0.8 0.8 0.0 0.001
 0.9 0.8 0.0 0.001
 0.0 0.9 0.0 0.001
 0.1 0.9 0.0 0.001
 0.2 0.9 0.0 0.001
 0.3 0.9 0.0 0.001
 0.4 0.9 0.0 0.001
 0.5 0.9 0.0 0.001
 0.6 0.9 0.0 0.001
 0.7 0.9 0.0 0.001
 0.8 0.9 0.0 0.001
 0.9 0.9 0.0 0.001
 0.0 0.0 0.1 0.001
 0.1 0.0 0.1 0.001
 0.2 0.0 0.1 0.001
 0.3 0.0 0.1 0.001
 0.4 0.0 0.1 0.001
 0.5 0.0 0.1 0.001
 0.6 0.0 0.1 0.001
 0.7 0.0 0.1 0.001
 0.8 0.0 0.1 0.001
 0.9 0.0 0.1 0.001
 0.0 0.1 0.1 0.001
 0.1 0.1 0.1 0.001
 0.2 0.1 0.1 0.001
 0.3 0.1 0.1 0.001
 0.4 0.1 0.1 0.001
 0.5 0.1 0.1 0.001
 0.6 0.1 0.1 0.001
 0.7 0.1 0.1 0.001
 0.8 0.1 0.1 0.001
 0.9 0.1 0.1 0.001
 0.0 0.2 0.1 0.001
 0.1 0.2 0.1 0.001
 0.2 0.2 0.1 0.001
 0.3 0.2 0.1 0.001
 0.4 0.2 0.1 0.001
 0.5 0.2 0.1 0.001
 0.6 0.2 0.1 0.001
 0.7 0.2 0.1 0.001
 0.8 0.2 0.1 0.001
 0.9 0.2 0.1 0.001
 0.0 0.3 0.1 0.001
 0.1 0.3 0.1 0.001
 0.2 0.3 0.1 0.001
 0.3 0.3 0.1 0.001
 0.4 0.3 0.1 0.001
 0.5 0.3 0.1 0.001
 0.6 0.3 0.1 0.001
 0.7 0.3 0.1 0.001
 0.8 0.3 0.1 0.001
 0.9 0.3 0.1 0.001
 0.0 0.4 0.1 0.001
 0.1 0.4 0.1 0.001
 0.2 0.4 0.1 0.001
 0.3 0.4 0.1 0.001
 0.4 0.4 0.1 0.001
 0.5 0.4 0.1 0.001
 0.6 0.4 0.1 0.001
 0.7 0.4 0.1 0.001
 0.8 0.4 0.1 0.001
 0.9 0.4 0.1 0.001
 0.0 0.5 0.1 0.001
 0.1 0.5 0.1 0.001
 0.2 0.5 0.1 0.001
 0.3 0.5 0.1 0.001
 0.4 0.5 0.1 0.001
 0.5 0.5 0.1 0.001
 0.6 0.5 0.1 0.001
 0.7 0.5 0.1 0.001
 0.8 0.5 0.1 0.001
 0.9 0.5 0.1 0.001
 0.0 0.6 0.1 0.001
 0.1 0.6 0.1 0.001
 0.2 0.6 0.1 0.001
 0.3 0.6 0.1 0.001
 0.4 0.6 0.1 0.001
 0.5 0.6 0.1 0.001
 0.6 0.6 0.1 0.001
 0.7 0.6 0.1 0.001
 0.8 0.6 0.1 0.001
 0.9 0.6 0.1 0.001
 0.0 0.7 0.1 0.001
 0.1 0.7 0.1 0.001
 0.2 0.7 0.1 0.001
 0.3 0.7 0.1 0.001
 0.4 0.7 0.1 0.001
 0.5 0.7 0.1 0.001
 0.6 0.7 0.1 0.001
 0.7 0.7 0.1 0.001
 0.8 0.7 0.1 0.001
 0.9 0.7 0.1 0.001
 0.0 0.8 0.1 0.001
 0.1 0.8 0.1 0.001
 0.2 0.8 0.1 0.001
 0.3 0.8 0.1 0.001
 0.4 0.8 0.1 0.001
 0.5 0.8 0.1 0.001
 0.6 0.8 0.1 0.001
 0.7 0.8 0.1 0.001
 0.8 0.8 0.1 0.001
 0.9 0.8 0.1 0.001
 0.0 0.9 0.1 0.001
 0.1 0.9 0.1 0.001
 0.2 0.9 0.1 0.001
 0.3 0.9 0.1 0.001
 0.4 0.9 0.1 0.001
 0.5 0.9 0.1 0.001
 0.6 0.9 0.1 0.001
 0.7 0.9 0.1 0.001
 0.8 0.9 0.1 0.001
 0.9 0.9 0.1 0.001
 0.0 0.0 0.2 0.001
 0.1 0.0 0.2 0.001
 0.2 0.0 0.2 0.001
 0.3 0.0 0.2 0.001
 0.4 0.0 0.2 0.001
 0.5 0.0 0.2 0.001
 0.6 0.0 0.2 0.001
 0.7 0.0 0.2 0.001
 0.8 0.0 0.2 0.001
 0.9 0.0 0.2 0.001
 0.0 0.1 0.2 0.001
 0.1 0.1 0.2 0.001
 0.2 0.1 0.2 0.001
 0.3 0.1 0.2 0.001
 0.4 0.1 0.2 0.001
 0.5 0.1 0.2 0.001
 0.6 0.1 0.2 0.001
 0.7 0.1 0.2 0.001
 0.8 0.1 0.2 0.001
 0.9 0.1 0.2 0.001
 0.0 0.2 0.2 0.001
 0.1 0.2 0.2 0.001
 0.2 0.2 0.2 0.001
 0.3 0.2 0.2 0.001
 0.4 0.2 0.2 0.001
 0.5 0.2 0.2 0.001
 0.6 0.2 0.2 0.001
 0.7 0.2 0.2 0.001
 0.8 0.2 0.2 0.001
 0.9 0.2 0.2 0.001
 0.0 0.3 0.2 0.001
 0.1 0.3 0.2 0.001
 0.2 0.3 0.2 0.001
 0.3 0.3 0.2 0.001
 0.4 0.3 0.2 0.001
 0.5 0.3 0.2 0.001
 0.6 0.3 0.2 0.001
 0.7 0.3 0.2 0.001
 0.8 0.3 0.2 0.001
 0.9 0.3 0.2 0.001
 0.0 0.4 0.2 0.001
 0.1 0.4 0.2 0.001
 0.2 0.4 0.2 0.001
 0.3 0.4 0.2 0.001
 0.4 0.4 0.2 0.001
 0.5 0.4 0.2 0.001
 0.6 0.4 0.2 0.001
 0.7 0.4 0.2 0.001
 0.8 0.4 0.2 0.001
 0.9 0.4 0.2 0.001
 0.0 0.5 0.2 0.001
 0.1 0.5 0.2 0.001
 0.2 0.5 0.2 0.001
 0.3 0.5 0.2 0.001
 0.4 0.5 0.2 0.001
 0.5 0.5 0.2 0.001
 0.6 0.5 0.2 0.001
 0.7 0.5 0.2 0.001
 0.8 0.5 0.2 0.001
 0.9 0.5 0.2 0.001
 0.0 0.6 0.2 0.001
 0.1 0.6 0.2 0.001
 0.2 0.6 0.2 0.001
 0.3 0.6 0.2 0.001
 0.4 0.6 0.2 0.001
 0.5 0.6 0.2 0.001
 0.6 0.6 0.2 0.001
 0.7 0.6 0.2 0.001
 0.8 0.6 0.2 0.001
 0.9 0.6 0.2 0.001
 0.0 0.7 0.2 0.001
 0.1 0.7 0.2 0.001
 0.2 0.7 0.2 0.001
 0.3 0.7 0.2 0.001
 0.4 0.7 0.2 0.001
 0.5 0.7 0.2 0.001
 0.6 0.7 0.2 0.001
 0.7 0.7 0.2 0.001
 0.8 0.7 0.2 0.001
 0.9 0.7 0.2 0.001
 0.0 0.8 0.2 0.001
 0.1 0.8 0.2 0.001
 0.2 0.8 0.2 0.001
 0.3 0.8 0.2 0.001
 0.4 0.8 0.2 0.001
 0.5 0.8 0.2 0.001
 0.6 0.8 0.2 0.001
 0.7 0.8 0.2 0.001
 0.8 0.8 0.2 0.001
 0.9 0.8 0.2 0.001
 0.0 0.9 0.2 0.001
 0.1 0.9 0.2 0.001
 0.2 0.9 0.2 0.001
 0.3 0.9 0.2 0.001
 0.4 0.9 0.2 0.001
 0.5 0.9 0.2 0.001
 0.6 0.9 0.2 0.001
 0.7 0.9 0.2 0.001
 0.8 0.9 0.2 0.001
 0.9 0.9 0.2 0.001
 0.0 0.0 0.3 0.001
 0.1 0.0 0.3 0.001
 0.2 0.0 0.3 0.001
 0.3 0.0 0.3 0.001
 0.4 0.0 0.3 0.001
 0.5 0.0 0.3 0.001
 0.6 0.0 0.3 0.001
 0.7 0.0 0.3 0.001
 0.8 0.0 0.3 0.001
 0.9 0.0 0.3 0.001
 0.0 0.1 0.3 0.001
 0.1 0.1 0.3 0.001
 0.2 0.1 0.3 0.001
 0.3 0.1 0.3 0.001
 0.4 0.1 0.3 0.001
 0.5 0.1 0.3 0.001
 0.6 0.1 0.3 0.001
 0.7 0.1 0.3 0.001
 0.8 0.1 0.3 0.001
 0.9 0.1 0.3 0.001
 0.0 0.2 0.3 0.001
 0.1 0.2 0.3 0.001
 0.2 0.2 0.3 0.001
 0.3 0.2 0.3 0.001
 0.4 0.2 0.3 0.001
 0.5 0.2 0.3 0.001
 0.6 0.2 0.3 0.001
 0.7 0.2 0.3 0.001
 0.8 0.2 0.3 0.001
 0.9 0.2 0.3 0.001
 0.0 0.3 0.3 0.001
 0.1 0.3 0.3 0.001
 0.2 0.3 0.3 0.001
 0.3 0.3 0.3 0.001
 0.4 0.3 0.3 0.001
 0.5 0.3 0.3 0.001
 0.6 0.3 0.3 0.001
 0.7 0.3 0.3 0.001
 0.8 0.3 0.3 0.001
 0.9 0.3 0.3 0.001
 0.0 0.4 0.3 0.001
 0.1 0.4 0.3 0.001
 0.2 0.4 0.3 0.001
 0.3 0.4 0.3 0.001
 0.4 0.4 0.3 0.001
 0.5 0.4 0.3 0.001
 0.6 0.4 0.3 0.001
 0.7 0.4 0.3 0.001
 0.8 0.4 0.3 0.001
 0.9 0.4 0.3 0.001
 0.0 0.5 0.3 0.001
 0.1 0.5 0.3 0.001
 0.2 0.5 0.3 0.001
 0.3 0.5 0.3 0.001
 0.4 0.5 0.3 0.001
 0.5 0.5 0.3 0.001
 0.6 0.5 0.3 0.001
 0.7 0.5 0.3 0.001
 0.8 0.5 0.3 0.001
 0.9 0.5 0.3 0.001
 0.0 0.6 0.3 0.001
 0.1 0.6 0.3 0.001
 0.2 0.6 0.3 0.001
 0.3 0.6 0.3 0.001
 0.4 0.6 0.3 0.001
 0.5 0.6 0.3 0.001
 0.6 0.6 0.3 0.001
 0.7 0.6 0.3 0.001
 0.8 0.6 0.3 0.001
 0.9 0.6 0.3 0.001
 0.0 0.7 0.3 0.001
 0.1 0.7 0.3 0.001
 0.2 0.7 0.3 0.001
 0.3 0.7 0.3 0.001
 0.4 0.7 0.3 0.001
 0.5 0.7 0.3 0.001
 0.6 0.7 0.3 0.001
 0.7 0.7 0.3 0.001
 0.8 0.7 0.3 0.001
 0.9 0.7 0.3 0.001
 0.0 0.8 0.3 0.001
 0.1 0.8 0.3 0.001
 0.2 0.8 0.3 0.001
 0.3 0.8 0.3 0.001
 0.4 0.8 0.3 0.001
 0.5 0.8 0.3 0.001
 0.6 0.8 0.3 0.001
 0.7 0.8 0.3 0.001
 0.8 0.8 0.3 0.001
 0.9 0.8 0.3 0.001
 0.0 0.9 0.3 0.001
 0.1 0.9 0.3 0.001
 0.2 0.9 0.3 0.001
 0.3 0.9 0.3 0.001
 0.4 0.9 0.3 0.001
 0.5 0.9 0.3 0.001
 0.6 0.9 0.3 0.001
 0.7 0.9 0.3 0.001
 0.8 0.9 0.3 0.001
 0.9 0.9 0.3 0.001
 0.0 0.0 0.4 0.001
 0.1 0.0 0.4 0.001
 0.2 0.0 0.4 0.001
 0.3 0.0 0.4 0.001
 0.4 0.0 0.4 0.001
 0.5 0.0 0.4 0.001
 0.6 0.0 0.4 0.001
 0.7 0.0 0.4 0.001
 0.8 0.0 0.4 0.001
 0.9 0.0 0.4 0.001
 0.0 0.1 0.4 0.001
 0.1 0.1 0.4 0.001
 0.2 0.1 0.4 0.001
 0.3 0.1 0.4 0.001
 0.4 0.1 0.4 0.001
 0.5 0.1 0.4 0.001
 0.6 0.1 0.4 0.001
 0.7 0.1 0.4 0.001
 0.8 0.1 0.4 0.001
 0.9 0.1 0.4 0.001
 0.0 0.2 0.4 0.001
 0.1 0.2 0.4 0.001
 0.2 0.2 0.4 0.001
 0.3 0.2 0.4 0.001
 0.4 0.2 0.4 0.001
 0.5 0.2 0.4 0.001
 0.6 0.2 0.4 0.001
 0.7 0.2 0.4 0.001
 0.8 0.2 0.4 0.001
 0.9 0.2 0.4 0.001
 0.0 0.3 0.4 0.001
 0.1 0.3 0.4 0.001
 0.2 0.3 0.4 0.001
 0.3 0.3 0.4 0.001
 0.4 0.3 0.4 0.001
 0.5 0.3 0.4 0.001
 0.6 0.3 0.4 0.001
 0.7 0.3 0.4 0.001
 0.8 0.3 0.4 0.001
 0.9 0.3 0.4 0.001
 0.0 0.4 0.4 0.001
 0.1 0.4 0.4 0.001
 0.2 0.4 0.4 0.001
 0.3 0.4 0.4 0.001
 0.4 0.4 0.4 0.001
 0.5 0.4 0.4 0.001
 0.6 0.4 0.4 0.001
 0.7 0.4 0.4 0.001
 0.8 0.4 0.4 0.001
 0.9 0.4 0.4 0.001
 0.0 0.5 0.4 0.001
 0.1 0.5 0.4 0.001
 0.2 0.5 0.4 0.001
 0.3 0.5 0.4 0.001
 0.4 0.5 0.4 0.001
 0.5 0.5 0.4 0.001
 0.6 0.5 0.4 0.001
 0.7 0.5 0.4 0.001
 0.8 0.5 0.4 0.001
 0.9 0.5 0.4 0.001
 0.0 0.6 0.4 0.001
 0.1 0.6 0.4 0.001
 0.2 0.6 0.4 0.001
 0.3 0.6 0.4 0.001
 0.4 0.6 0.4 0.001
 0.5 0.6 0.4 0.001
 0.6 0.6 0.4 0.001
 0.7 0.6 0.4 0.001
 0.8 0.6 0.4 0.001
 0.9 0.6 0.4 0.001
 0.0 0.7 0.4 0.001
 0.1 0.7 0.4 0.001
 0.2 0.7 0.4 0.001
 0.3 0.7 0.4 0.001
 0.4 0.7 0.4 0.001
 0.5 0.7 0.4 0.001
 0.6 0.7 0.4 0.001
 0.7 0.7 0.4 0.001
 0.8 0.7 0.4 0.001
 0.9 0.7 0.4 0.001
 0.0 0.8 0.4 0.001
 0.1 0.8 0.4 0.001
 0.2 0.8 0.4 0.001
 0.3 0.8 0.4 0.001
 0.4 0.8 0.4 0.001
 0.5 0.8 0.4 0.001
 0.6 0.8 0.4 0.001
 0.7 0.8 0.4 0.001
 0.8 0.8 0.4 0.001
 0.9 0.8 0.4 0.001
 0.0 0.9 0.4 0.001
 0.1 0.9 0.4 0.001
 0.2 0.9 0.4 0.001
 0.3 0.9 0.4 0.001
 0.4 0.9 0.4 0.001
 0.5 0.9 0.4 0.001
 0.6 0.9 0.4 0.001
 0.7 0.9 0.4 0.001
 0.8 0.9 0.4 0.001
 0.9 0.9 0.4 0.001
 0.0 0.0 0.5 0.001
 0.1 0.0 0.5 0.001
 0.2 0.0 0.5 0.001
 0.3 0.0 0.5 0.001
 0.4 0.0 0.5 0.001
 0.5 0.0 0.5 0.001
 0.6 0.0 0.5 0.001
 0.7 0.0 0.5 0.001
 0.8 0.0 0.5 0.001
 0.9 0.0 0.5 0.001
 0.0 0.1 0.5 0.001
 0.1 0.1 0.5 0.001
 0.2 0.1 0.5 0.001
 0.3 0.1 0.5 0.001
 0.4 0.1 0.5 0.001
 0.5 0.1 0.5 0.001
 0.6 0.1 0.5 0.001
 0.7 0.1 0.5 0.001
 0.8 0.1 0.5 0.001
 0.9 0.1 0.5 0.001
 0.0 0.2 0.5 0.001
 0.1 0.2 0.5 0.001
 0.2 0.2 0.5 0.001
 0.3 0.2 0.5 0.001
 0.4 0.2 0.5 0.001
 0.5 0.2 0.5 0.001
 0.6 0.2 0.5 0.001
 0.7 0.2 0.5 0.001
 0.8 0.2 0.5 0.001
 0.9 0.2 0.5 0.001
 0.0 0.3 0.5 0.001
 0.1 0.3 0.5 0.001
 0.2 0.3 0.5 0.001
 0.3 0.3 0.5 0.001
 0.4 0.3 0.5 0.001
 0.5 0.3 0.5 0.001
 0.6 0.3 0.5 0.001
 0.7 0.3 0.5 0.001
 0.8 0.3 0.5 0.001
 0.9 0.3 0.5 0.001
 0.0 0.4 0.5 0.001
 0.1 0.4 0.5 0.001
 0.2 0.4 0.5 0.001
 0.3 0.4 0.5 0.001
 0.4 0.4 0.5 0.001
 0.5 0.4 0.5 0.001
 0.6 0.4 0.5 0.001
 0.7 0.4 0.5 0.001
 0.8 0.4 0.5 0.001
 0.9 0.4 0.5 0.001
 0.0 0.5 0.5 0.001
 0.1 0.5 0.5 0.001
 0.2 0.5 0.5 0.001
 0.3 0.5 0.5 0.001
 0.4 0.5 0.5 0.001
 0.5 0.5 0.5 0.001
 0.6 0.5 0.5 0.001
 0.7 0.5 0.5 0.001
 0.8 0.5 0.5 0.001
 0.9 0.5 0.5 0.001
 0.0 0.6 0.5 0.001
 0.1 0.6 0.5 0.001
 0.2 0.6 0.5 0.001
 0.3 0.6 0.5 0.001
 0.4 0.6 0.5 0.001
 0.5 0.6 0.5 0.001
 0.6 0.6 0.5 0.001
 0.7 0.6 0.5 0.001
 0.8 0.6 0.5 0.001
 0.9 0.6 0.5 0.001
 0.0 0.7 0.5 0.001
 0.1 0.7 0.5 0.001
 0.2 0.7 0.5 0.001
 0.3 0.7 0.5 0.001
 0.4 0.7 0.5 0.001
 0.5 0.7 0.5 0.001
 0.6 0.7 0.5 0.001
 0.7 0.7 0.5 0.001
 0.8 0.7 0.5 0.001
 0.9 0.7 0.5 0.001
 0.0 0.8 0.5 0.001
 0.1 0.8 0.5 0.001
 0.2 0.8 0.5 0.001
 0.3 0.8 0.5 0.001
 0.4 0.8 0.5 0.001
 0.5 0.8 0.5 0.001
 0.6 0.8 0.5 0.001
 0.7 0.8 0.5 0.001
 0.8 0.8 0.5 0.001
 0.9 0.8 0.5 0.001
 0.0 0.9 0.5 0.001
 0.1 0.9 0.5 0.001
 0.2 0.9 0.5 0.001
 0.3 0.9 0.5 0.001
 0.4 0.9 0.5 0.001
 0.5 0.9 0.5 0.001
 0.6 0.9 0.5 0.001
 0.7 0.9 0.5 0.001
 0.8 0.9 0.5 0.001
 0.9 0.9 0.5 0.001
 0.0 0.0 0.6 0.001
 0.1 0.0 0.6 0.001
 0.2 0.0 0.6 0.001
 0.3 0.0 0.6 0.001
 0.4 0.0 0.6 0.001
 0.5 0.0 0.6 0.001
 0.6 0.0 0.6 0.001
 0.7 0.0 0.6 0.001
 0.8 0.0 0.6 0.001
 0.9 0.0 0.6 0.001
 0.0 0.1 0.6 0.001
 0.1 0.1 0.6 0.001
 0.2 0.1 0.6 0.001
 0.3 0.1 0.6 0.001
 0.4 0.1 0.6 0.001
 0.5 0.1 0.6 0.001
 0.6 0.1 0.6 0.001
 0.7 0.1 0.6 0.001
 0.8 0.1 0.6 0.001
 0.9 0.1 0.6 0.001
 0.0 0.2 0.6 0.001
 0.1 0.2 0.6 0.001
 0.2 0.2 0.6 0.001
 0.3 0.2 0.6 0.001
 0.4 0.2 0.6 0.001
 0.5 0.2 0.6 0.001
 0.6 0.2 0.6 0.001
 0.7 0.2 0.6 0.001
 0.8 0.2 0.6 0.001
 0.9 0.2 0.6 0.001
 0.0 0.3 0.6 0.001
 0.1 0.3 0.6 0.001
 0.2 0.3 0.6 0.001
 0.3 0.3 0.6 0.001
 0.4 0.3 0.6 0.001
 0.5 0.3 0.6 0.001
 0.6 0.3 0.6 0.001
 0.7 0.3 0.6 0.001
 0.8 0.3 0.6 0.001
 0.9 0.3 0.6 0.001
 0.0 0.4 0.6 0.001
 0.1 0.4 0.6 0.001
 0.2 0.4 0.6 0.001
 0.3 0.4 0.6 0.001
 0.4 0.4 0.6 0.001
 0.5 0.4 0.6 0.001
 0.6 0.4 0.6 0.001
 0.7 0.4 0.6 0.001
 0.8 0.4 0.6 0.001
 0.9 0.4 0.6 0.001
 0.0 0.5 0.6 0.001
 0.1 0.5 0.6 0.001
 0.2 0.5 0.6 0.001
 0.3 0.5 0.6 0.001
 0.4 0.5 0.6 0.001
 0.5 0.5 0.6 0.001
 0.6 0.5 0.6 0.001
 0.7 0.5 0.6 0.001
 0.8 0.5 0.6 0.001
 0.9 0.5 0.6 0.001
 0.0 0.6 0.6 0.001
 0.1 0.6 0.6 0.001
 0.2 0.6 0.6 0.001
 0.3 0.6 0.6 0.001
 0.4 0.6 0.6 0.001
 0.5 0.6 0.6 0.001
 0.6 0.6 0.6 0.001
 0.7 0.6 0.6 0.001
 0.8 0.6 0.6 0.001
 0.9 0.6 0.6 0.001
 0.0 0.7 0.6 0.001
 0.1 0.7 0.6 0.001
 0.2 0.7 0.6 0.001
 0.3 0.7 0.6 0.001
 0.4 0.7 0.6 0.001
 0.5 0.7 0.6 0.001
 0.6 0.7 0.6 0.001
 0.7 0.7 0.6 0.001
 0.8 0.7 0.6 0.001
 0.9 0.7 0.6 0.001
 0.0 0.8 0.6 0.001
 0.1 0.8 0.6 0.001
 0.2 0.8 0.6 0.001
 0.3 0.8 0.6 0.001
 0.4 0.8 0.6 0.001
 0.5 0.8 0.6 0.001
 0.6 0.8 0.6 0.001
 0.7 0.8 0.6 0.001
 0.8 0.8 0.6 0.001
 0.9 0.8 0.6 0.001
 0.0 0.9 0.6 0.001
 0.1 0.9 0.6 0.001
 0.2 0.9 0.6 0.001
 0.3 0.9 0.6 0.001
 0.4 0.9 0.6 0.001
 0.5 0.9 0.6 0.001
 0.6 0.9 0.6 0.001
 0.7 0.9 0.6 0.001
 0.8 0.9 0.6 0.001
 0.9 0.9 0.6 0.001
 0.0 0.0 0.7 0.001
 0.1 0.0 0.7 0.001
 0.2 0.0 0.7 0.001
 0.3 0.0 0.7 0.001
 0.4 0.0 0.7 0.001
 0.5 0.0 0.7 0.001
 0.6 0.0 0.7 0.001
 0.7 0.0 0.7 0.001
 0.8 0.0 0.7 0.001
 0.9 0.0 0.7 0.001
 0.0 0.1 0.7 0.001
 0.1 0.1 0.7 0.001
 0.2 0.1 0.7 0.001
 0.3 0.1 0.7 0.001
 0.4 0.1 0.7 0.001
 0.5 0.1 0.7 0.001
 0.6 0.1 0.7 0.001
 0.7 0.1 0.7 0.001
 0.8 0.1 0.7 0.001
 0.9 0.1 0.7 0.001
 0.0 0.2 0.7 0.001
 0.1 0.2 0.7 0.001
 0.2 0.2 0.7 0.001
 0.3 0.2 0.7 0.001
 0.4 0.2 0.7 0.001
 0.5 0.2 0.7 0.001
 0.6 0.2 0.7 0.001
 0.7 0.2 0.7 0.001
 0.8 0.2 0.7 0.001
 0.9 0.2 0.7 0.001
 0.0 0.3 0.7 0.001
 0.1 0.3 0.7 0.001
 0.2 0.3 0.7 0.001
 0.3 0.3 0.7 0.001
 0.4 0.3 0.7 0.001
 0.5 0.3 0.7 0.001
 0.6 0.3 0.7 0.001
 0.7 0.3 0.7 0.001
 0.8 0.3 0.7 0.001
 0.9 0.3 0.7 0.001
 0.0 0.4 0.7 0.001
 0.1 0.4 0.7 0.001
 0.2 0.4 0.7 0.001
 0.3 0.4 0.7 0.001
 0.4 0.4 0.7 0.001
 0.5 0.4 0.7 0.001
 0.6 0.4 0.7 0.001
 0.7 0.4 0.7 0.001
 0.8 0.4 0.7 0.001
 0.9 0.4 0.7 0.001
 0.0 0.5 0.7 0.001
 0.1 0.5 0.7 0.001
 0.2 0.5 0.7 0.001
 0.3 0.5 0.7 0.001
 0.4 0.5 0.7 0.001
 0.5 0.5 0.7 0.001
 0.6 0.5 0.7 0.001
 0.7 0.5 0.7 0.001
 0.8 0.5 0.7 0.001
 0.9 0.5 0.7 0.001
 0.0 0.6 0.7 0.001
 0.1 0.6 0.7 0.001
 0.2 0.6 0.7 0.001
 0.3 0.6 0.7 0.001
 0.4 0.6 0.7 0.001
 0.5 0.6 0.7 0.001
 0.6 0.6 0.7 0.001
 0.7 0.6 0.7 0.001
 0.8 0.6 0.7 0.001
 0.9 0.6 0.7 0.001
 0.0 0.7 0.7 0.001
 0.1 0.7 0.7 0.001
 0.2 0.7 0.7 0.001
 0.3 0.7 0.7 0.001
 0.4 0.7 0.7 0.001
 0.5 0.7 0.7 0.001
 0.6 0.7 0.7 0.001
 0.7 0.7 0.7 0.001
 0.8 0.7 0.7 0.001
 0.9 0.7 0.7 0.001
 0.0 0.8 0.7 0.001
 0.1 0.8 0.7 0.001
 0.2 0.8 0.7 0.001
 0.3 0.8 0.7 0.001
 0.4 0.8 0.7 0.001
 0.5 0.8 0.7 0.001
 0.6 0.8 0.7 0.001
 0.7 0.8 0.7 0.001
 0.8 0.8 0.7 0.001
 0.9 0.8 0.7 0.001
 0.0 0.9 0.7 0.001
 0.1 0.9 0.7 0.001
 0.2 0.9 0.7 0.001
 0.3 0.9 0.7 0.001
 0.4 0.9 0.7 0.001
 0.5 0.9 0.7 0.001
 0.6 0.9 0.7 0.001
 0.7 0.9 0.7 0.001
 0.8 0.9 0.7 0.001
 0.9 0.9 0.7 0.001
 0.0 0.0 0.8 0.001
 0.1 0.0 0.8 0.001
 0.2 0.0 0.8 0.001
 0.3 0.0 0.8 0.001
 0.4 0.0 0.8 0.001
 0.5 0.0 0.8 0.001
 0.6 0.0 0.8 0.001
 0.7 0.0 0.8 0.001
 0.8 0.0 0.8 0.001
 0.9 0.0 0.8 0.001
 0.0 0.1 0.8 0.001
 0.1 0.1 0.8 0.001
 0.2 0.1 0.8 0.001
 0.3 0.1 0.8 0.001
 0.4 0.1 0.8 0.001
 0.5 0.1 0.8 0.001
 0.6 0.1 0.8 0.001
 0.7 0.1 0.8 0.001
 0.8 0.1 0.8 0.001
 0.9 0.1 0.8 0.001
 0.0 0.2 0.8 0.001
 0.1 0.2 0.8 0.001
 0.2 0.2 0.8 0.001
 0.3 0.2 0.8 0.001
 0.4 0.2 0.8 0.001
 0.5 0.2 0.8 0.001
 0.6 0.2 0.8 0.001
 0.7 0.2 0.8 0.001
 0.8 0.2 0.8 0.001
 0.9 0.2 0.8 0.001
 0.0 0.3 0.8 0.001
 0.1 0.3 0.8 0.001
 0.2 0.3 0.8 0.001
 0.3 0.3 0.8 0.001
 0.4 0.3 0.8 0.001
 0.5 0.3 0.8 0.001
 0.6 0.3 0.8 0.001
 0.7 0.3 0.8 0.001
 0.8 0.3 0.8 0.001
 0.9 0.3 0.8 0.001
 0.0 0.4 0.8 0.001
 0.1 0.4 0.8 0.001
 0.2 0.4 0.8 0.001
 0.3 0.4 0.8 0.001
 0.4 0.4 0.8 0.001
 0.5 0.4 0.8 0.001
 0.6 0.4 0.8 0.001
 0.7 0.4 0.8 0.001
 0.8 0.4 0.8 0.001
 0.9 0.4 0.8 0.001
 0.0 0.5 0.8 0.001
 0.1 0.5 0.8 0.001
 0.2 0.5 0.8 0.001
 0.3 0.5 0.8 0.001
 0.4 0.5 0.8 0.001
 0.5 0.5 0.8 0.001
 0.6 0.5 0.8 0.001
 0.7 0.5 0.8 0.001
 0.8 0.5 0.8 0.001
 0.9 0.5 0.8 0.001
 0.0 0.6 0.8 0.001
 0.1 0.6 0.8 0.001
 0.2 0.6 0.8 0.001
 0.3 0.6 0.8 0.001
 0.4 0.6 0.8 0.001
 0.5 0.6 0.8 0.001
 0.6 0.6 0.8 0.001
 0.7 0.6 0.8 0.001
 0.8 0.6 0.8 0.001
 0.9 0.6 0.8 0.001
 0.0 0.7 0.8 0.001
 0.1 0.7 0.8 0.001
 0.2 0.7 0.8 0.001
 0.3 0.7 0.8 0.001
 0.4 0.7 0.8 0.001
 0.5 0.7 0.8 0.001
 0.6 0.7 0.8 0.001
 0.7 0.7 0.8 0.001
 0.8 0.7 0.8 0.001
 0.9 0.7 0.8 0.001
 0.0 0.8 0.8 0.001
 0.1 0.8 0.8 0.001
 0.2 0.8 0.8 0.001
 0.3 0.8 0.8 0.001
 0.4 0.8 0.8 0.001
 0.5 0.8 0.8 0.001
 0.6 0.8 0.8 0.001
 0.7 0.8 0.8 0.001
 0.8 0.8 0.8 0.001
 0.9 0.8 0.8 0.001
 0.0 0.9 0.8 0.001
 0.1 0.9 0.8 0.001
 0.2 0.9 0.8 0.001
 0.3 0.9 0.8 0.001
 0.4 0.9 0.8 0.001
 0.5 0.9 0.8 0.001
 0.6 0.9 0.8 0.001
 0.7 0.9 0.8 0.001
 0.8 0.9 0.8 0.001
 0.9 0.9 0.8 0.001
 0.0 0.0 0.9 0.001
 0.1 0.0 0.9 0.001
 0.2 0.0 0.9 0.001
 0.3 0.0 0.9 0.001
 0.4 0.0 0.9 0.001
 0.5 0.0 0.9 0.001
 0.6 0.0 0.9 0.001
 0.7 0.0 0.9 0.001
 0.8 0.0 0.9 0.001
 0.9 0.0 0.9 0.001
 0.0 0.1 0.9 0.001
 0.1 0.1 0.9 0.001
 0.2 0.1 0.9 0.001
 0.3 0.1 0.9 0.001
 0.4 0.1 0.9 0.001
 0.5 0.1 0.9 0.001
 0.6 0.1 0.9 0.001
 0.7 0.1 0.9 0.001
 0.8 0.1 0.9 0.001
 0.9 0.1 0.9 0.001
 0.0 0.2 0.9 0.001
 0.1 0.2 0.9 0.001
 0.2 0.2 0.9 0.001
 0.3 0.2 0.9 0.001
 0.4 0.2 0.9 0.001
 0.5 0.2 0.9 0.001
 0.6 0.2 0.9 0.001
 0.7 0.2 0.9 0.001
 0.8 0.2 0.9 0.001
 0.9 0.2 0.9 0.001
 0.0 0.3 0.9 0.001
 0.1 0.3 0.9 0.001
 0.2 0.3 0.9 0.001
 0.3 0.3 0.9 0.001
 0.4 0.3 0.9 0.001
 0.5 0.3 0.9 0.001
 0.6 0.3 0.9 0.001
 0.7 0.3 0.9 0.001
 0.8 0.3 0.9 0.001
 0.9 0.3 0.9 0.001
 0.0 0.4 0.9 0.001
 0.1 0.4 0.9 0.001
 0.2 0.4 0.9 0.001
 0.3 0.4 0.9 0.001
 0.4 0.4 0.9 0.001
 0.5 0.4 0.9 0.001
 0.6 0.4 0.9 0.001
 0.7 0.4 0.9 0.001
 0.8 0.4 0.9 0.001
 0.9 0.4 0.9 0.001
 0.0 0.5 0.9 0.001
 0.1 0.5 0.9 0.001
 0.2 0.5 0.9 0.001
 0.3 0.5 0.9 0.001
 0.4 0.5 0.9 0.001
 0.5 0.5 0.9 0.001
 0.6 0.5 0.9 0.001
 0.7 0.5 0.9 0.001
 0.8 0.5 0.9 0.001
 0.9 0.5 0.9 0.001
 0.0 0.6 0.9 0.001
 0.1 0.6 0.9 0.001
 0.2 0.6 0.9 0.001
 0.3 0.6 0.9 0.001
 0.4 0.6 0.9 0.001
 0.5 0.6 0.9 0.001
 0.6 0.6 0.9 0.001
 0.7 0.6 0.9 0.001
 0.8 0.6 0.9 0.001
 0.9 0.6 0.9 0.001
 0.0 0.7 0.9 0.001
 0.1 0.7 0.9 0.001
 0.2 0.7 0.9 0.001
 0.3 0.7 0.9 0.001
 0.4 0.7 0.9 0.001
 0.5 0.7 0.9 0.001
 0.6 0.7 0.9 0.001
 0.7 0.7 0.9 0.001
 0.8 0.7 0.9 0.001
 0.9 0.7 0.9 0.001
 0.0 0.8 0.9 0.001
 0.1 0.8 0.9 0.001
 0.2 0.8 0.9 0.001
 0.3 0.8 0.9 0.001
 0.4 0.8 0.9 0.001
 0.5 0.8 0.9 0.001
 0.6 0.8 0.9 0.001
 0.7 0.8 0.9 0.001
 0.8 0.8 0.9 0.001
 0.9 0.8 0.9 0.001
 0.0 0.9 0.9 0.001
 0.1 0.9 0.9 0.001
 0.2 0.9 0.9 0.001
 0.3 0.9 0.9 0.001
 0.4 0.9 0.9 0.001
 0.5 0.9 0.9 0.001
 0.6 0.9 0.9 0.001
 0.7 0.9 0.9 0.001
 0.8 0.9 0.9 0.001
 0.9 0.9 0.9 0.001

