  mp_grid =   5 5 5
  dis_win_min = -10.829419999999999
  dis_froz_min = -5.82942
  num_bands = 18
  num_wann = 32
  dis_win_max = 17.3969
  dis_froz_max = 12.396899999999999

begin unit_cell_cart
4.957940101623535 0.0 0.0
1.2394850254058838 2.1468510392237925 0.0
1.2394850254058838 0.7156170130745974 2.0240705707100397
end unit_cell_cart

begin projections
random
end projections

begin atoms_frac
Ni  0.0 0.0 0.0
Ni1  0.5 0.0 0.0
end atoms_frac

begin kpoints
0.0 0.0 0.0
0.2 0.0 0.0
0.4 0.0 0.0
0.6 0.0 0.0
0.8 0.0 0.0
0.0 0.2 0.0
0.2 0.2 0.0
0.4 0.2 0.0
0.6 0.2 0.0
0.8 0.2 0.0
0.0 0.4 0.0
0.2 0.4 0.0
0.4 0.4 0.0
0.6 0.4 0.0
0.8 0.4 0.0
0.0 0.6 0.0
0.2 0.6 0.0
0.4 0.6 0.0
0.6 0.6 0.0
0.8 0.6 0.0
0.0 0.8 0.0
0.2 0.8 0.0
0.4 0.8 0.0
0.6 0.8 0.0
0.8 0.8 0.0
0.0 0.0 0.2
0.2 0.0 0.2
0.4 0.0 0.2
0.6 0.0 0.2
0.8 0.0 0.2
0.0 0.2 0.2
0.2 0.2 0.2
0.4 0.2 0.2
0.6 0.2 0.2
0.8 0.2 0.2
0.0 0.4 0.2
0.2 0.4 0.2
0.4 0.4 0.2
0.6 0.4 0.2
0.8 0.4 0.2
0.0 0.6 0.2
0.2 0.6 0.2
0.4 0.6 0.2
0.6 0.6 0.2
0.8 0.6 0.2
0.0 0.8 0.2
0.2 0.8 0.2
0.4 0.8 0.2
0.6 0.8 0.2
0.8 0.8 0.2
0.0 0.0 0.4
0.2 0.0 0.4
0.4 0.0 0.4
0.6 0.0 0.4
0.8 0.0 0.4
0.0 0.2 0.4
0.2 0.2 0.4
0.4 0.2 0.4
0.6 0.2 0.4
0.8 0.2 0.4
0.0 0.4 0.4
0.2 0.4 0.4
0.4 0.4 0.4
0.6 0.4 0.4
0.8 0.4 0.4
0.0 0.6 0.4
0.2 0.6 0.4
0.4 0.6 0.4
0.6 0.6 0.4
0.8 0.6 0.4
0.0 0.8 0.4
0.2 0.8 0.4
0.4 0.8 0.4
0.6 0.8 0.4
0.8 0.8 0.4
0.0 0.0 0.6
0.2 0.0 0.6
0.4 0.0 0.6
0.6 0.0 0.6
0.8 0.0 0.6
0.0 0.2 0.6
0.2 0.2 0.6
0.4 0.2 0.6
0.6 0.2 0.6
0.8 0.2 0.6
0.0 0.4 0.6
0.2 0.4 0.6
0.4 0.4 0.6
0.6 0.4 0.6
0.8 0.4 0.6
0.0 0.6 0.6
0.2 0.6 0.6
0.4 0.6 0.6
0.6 0.6 0.6
0.8 0.6 0.6
0.0 0.8 0.6
0.2 0.8 0.6
0.4 0.8 0.6
0.6 0.8 0.6
0.8 0.8 0.6
0.0 0.0 0.8
0.2 0.0 0.8
0.4 0.0 0.8
0.6 0.0 0.8
0.8 0.0 0.8
0.0 0.2 0.8
0.2 0.2 0.8
0.4 0.2 0.8
0.6 0.2 0.8
0.8 0.2 0.8
0.0 0.4 0.8
0.2 0.4 0.8
0.4 0.4 0.8
0.6 0.4 0.8
0.8 0.4 0.8
0.0 0.6 0.8
0.2 0.6 0.8
0.4 0.6 0.8
0.6 0.6 0.8
0.8 0.6 0.8
0.0 0.8 0.8
0.2 0.8 0.8
0.4 0.8 0.8
0.6 0.8 0.8
0.8 0.8 0.8
end kpoints

