  mp_grid =   5 5 5
  dis_win_min = -0.48702000000000023
  spin = up
  dis_froz_min = 4.51298
  num_bands = 18
  num_wann = 18
  dis_win_max = 36.331500000000005
  dis_froz_max = 31.331500000000002

begin unit_cell_cart
4.957940101623535 0.0 0.0
1.2394850254058838 2.1468510392237925 0.0
1.2394850254058838 0.7156170130745974 2.0240705707100397
end unit_cell_cart

begin projections
Ni: s;p;d
Ni1: s;p;d
end projections

begin atoms_frac
Ni  0.0 0.0 0.0
Ni1  0.5 0.0 0.0
end atoms_frac

begin kpoints
0.0 0.0 0.0
0.2 0.0 0.0
0.4 0.0 0.0
0.6 0.0 0.0
0.8 0.0 0.0
0.0 0.2 0.0
0.2 0.2 0.0
0.4 0.2 0.0
0.6 0.2 0.0
0.8 0.2 0.0
0.0 0.4 0.0
0.2 0.4 0.0
0.4 0.4 0.0
0.6 0.4 0.0
0.8 0.4 0.0
0.0 0.6 0.0
0.2 0.6 0.0
0.4 0.6 0.0
0.6 0.6 0.0
0.8 0.6 0.0
0.0 0.8 0.0
0.2 0.8 0.0
0.4 0.8 0.0
0.6 0.8 0.0
0.8 0.8 0.0
0.0 0.0 0.2
0.2 0.0 0.2
0.4 0.0 0.2
0.6 0.0 0.2
0.8 0.0 0.2
0.0 0.2 0.2
0.2 0.2 0.2
0.4 0.2 0.2
0.6 0.2 0.2
0.8 0.2 0.2
0.0 0.4 0.2
0.2 0.4 0.2
0.4 0.4 0.2
0.6 0.4 0.2
0.8 0.4 0.2
0.0 0.6 0.2
0.2 0.6 0.2
0.4 0.6 0.2
0.6 0.6 0.2
0.8 0.6 0.2
0.0 0.8 0.2
0.2 0.8 0.2
0.4 0.8 0.2
0.6 0.8 0.2
0.8 0.8 0.2
0.0 0.0 0.4
0.2 0.0 0.4
0.4 0.0 0.4
0.6 0.0 0.4
0.8 0.0 0.4
0.0 0.2 0.4
0.2 0.2 0.4
0.4 0.2 0.4
0.6 0.2 0.4
0.8 0.2 0.4
0.0 0.4 0.4
0.2 0.4 0.4
0.4 0.4 0.4
0.6 0.4 0.4
0.8 0.4 0.4
0.0 0.6 0.4
0.2 0.6 0.4
0.4 0.6 0.4
0.6 0.6 0.4
0.8 0.6 0.4
0.0 0.8 0.4
0.2 0.8 0.4
0.4 0.8 0.4
0.6 0.8 0.4
0.8 0.8 0.4
0.0 0.0 0.6
0.2 0.0 0.6
0.4 0.0 0.6
0.6 0.0 0.6
0.8 0.0 0.6
0.0 0.2 0.6
0.2 0.2 0.6
0.4 0.2 0.6
0.6 0.2 0.6
0.8 0.2 0.6
0.0 0.4 0.6
0.2 0.4 0.6
0.4 0.4 0.6
0.6 0.4 0.6
0.8 0.4 0.6
0.0 0.6 0.6
0.2 0.6 0.6
0.4 0.6 0.6
0.6 0.6 0.6
0.8 0.6 0.6
0.0 0.8 0.6
0.2 0.8 0.6
0.4 0.8 0.6
0.6 0.8 0.6
0.8 0.8 0.6
0.0 0.0 0.8
0.2 0.0 0.8
0.4 0.0 0.8
0.6 0.0 0.8
0.8 0.0 0.8
0.0 0.2 0.8
0.2 0.2 0.8
0.4 0.2 0.8
0.6 0.2 0.8
0.8 0.2 0.8
0.0 0.4 0.8
0.2 0.4 0.8
0.4 0.4 0.8
0.6 0.4 0.8
0.8 0.4 0.8
0.0 0.6 0.8
0.2 0.6 0.8
0.4 0.6 0.8
0.6 0.6 0.8
0.8 0.6 0.8
0.0 0.8 0.8
0.2 0.8 0.8
0.4 0.8 0.8
0.6 0.8 0.8
0.8 0.8 0.8
end kpoints

