&control
  prefix = 'Si'
  verbosity = 'high'
  calculation = 'nscf'
  outdir = '/home/ponet/.julia/dev/DFControl/docs/build/guide/Job2/outputs'
  pseudo_dir = '/home/ponet/Documents/pseudos/pslibrary_pbesol/PSEUDOPOTENTIALS'
/

&system
  ibrav = 0
  nat = 8
  ntyp = 1
  ecutwfc = 20.0
/

&electrons
  conv_thr = 1.0e-6
/

ATOMIC_SPECIES
Si 28.0855   Si.pbesol-n-kjpaw_psl.0.1.UPF

CELL_PARAMETERS (angstrom)
5.4309401512146 0.0 0.0
0.0 5.4309401512146 0.0
0.0 0.0 5.4309401512146

ATOMIC_POSITIONS (crystal) 
Si  0.0 0.0 0.0
Si  0.0 0.5 0.5
Si  0.25 0.25 0.25
Si  0.5 0.0 0.5
Si  0.25 0.75 0.75
Si  0.75 0.75 0.25
Si  0.75 0.25 0.75
Si  0.5 0.5 0.0

K_POINTS (crystal)
216
 0.0 0.0 0.0 0.004629629629629629
 0.16666666666666666 0.0 0.0 0.004629629629629629
 0.3333333333333333 0.0 0.0 0.004629629629629629
 0.5 0.0 0.0 0.004629629629629629
 0.6666666666666666 0.0 0.0 0.004629629629629629
 0.8333333333333334 0.0 0.0 0.004629629629629629
 0.0 0.16666666666666666 0.0 0.004629629629629629
 0.16666666666666666 0.16666666666666666 0.0 0.004629629629629629
 0.3333333333333333 0.16666666666666666 0.0 0.004629629629629629
 0.5 0.16666666666666666 0.0 0.004629629629629629
 0.6666666666666666 0.16666666666666666 0.0 0.004629629629629629
 0.8333333333333334 0.16666666666666666 0.0 0.004629629629629629
 0.0 0.3333333333333333 0.0 0.004629629629629629
 0.16666666666666666 0.3333333333333333 0.0 0.004629629629629629
 0.3333333333333333 0.3333333333333333 0.0 0.004629629629629629
 0.5 0.3333333333333333 0.0 0.004629629629629629
 0.6666666666666666 0.3333333333333333 0.0 0.004629629629629629
 0.8333333333333334 0.3333333333333333 0.0 0.004629629629629629
 0.0 0.5 0.0 0.004629629629629629
 0.16666666666666666 0.5 0.0 0.004629629629629629
 0.3333333333333333 0.5 0.0 0.004629629629629629
 0.5 0.5 0.0 0.004629629629629629
 0.6666666666666666 0.5 0.0 0.004629629629629629
 0.8333333333333334 0.5 0.0 0.004629629629629629
 0.0 0.6666666666666666 0.0 0.004629629629629629
 0.16666666666666666 0.6666666666666666 0.0 0.004629629629629629
 0.3333333333333333 0.6666666666666666 0.0 0.004629629629629629
 0.5 0.6666666666666666 0.0 0.004629629629629629
 0.6666666666666666 0.6666666666666666 0.0 0.004629629629629629
 0.8333333333333334 0.6666666666666666 0.0 0.004629629629629629
 0.0 0.8333333333333334 0.0 0.004629629629629629
 0.16666666666666666 0.8333333333333334 0.0 0.004629629629629629
 0.3333333333333333 0.8333333333333334 0.0 0.004629629629629629
 0.5 0.8333333333333334 0.0 0.004629629629629629
 0.6666666666666666 0.8333333333333334 0.0 0.004629629629629629
 0.8333333333333334 0.8333333333333334 0.0 0.004629629629629629
 0.0 0.0 0.16666666666666666 0.004629629629629629
 0.16666666666666666 0.0 0.16666666666666666 0.004629629629629629
 0.3333333333333333 0.0 0.16666666666666666 0.004629629629629629
 0.5 0.0 0.16666666666666666 0.004629629629629629
 0.6666666666666666 0.0 0.16666666666666666 0.004629629629629629
 0.8333333333333334 0.0 0.16666666666666666 0.004629629629629629
 0.0 0.16666666666666666 0.16666666666666666 0.004629629629629629
 0.16666666666666666 0.16666666666666666 0.16666666666666666 0.004629629629629629
 0.3333333333333333 0.16666666666666666 0.16666666666666666 0.004629629629629629
 0.5 0.16666666666666666 0.16666666666666666 0.004629629629629629
 0.6666666666666666 0.16666666666666666 0.16666666666666666 0.004629629629629629
 0.8333333333333334 0.16666666666666666 0.16666666666666666 0.004629629629629629
 0.0 0.3333333333333333 0.16666666666666666 0.004629629629629629
 0.16666666666666666 0.3333333333333333 0.16666666666666666 0.004629629629629629
 0.3333333333333333 0.3333333333333333 0.16666666666666666 0.004629629629629629
 0.5 0.3333333333333333 0.16666666666666666 0.004629629629629629
 0.6666666666666666 0.3333333333333333 0.16666666666666666 0.004629629629629629
 0.8333333333333334 0.3333333333333333 0.16666666666666666 0.004629629629629629
 0.0 0.5 0.16666666666666666 0.004629629629629629
 0.16666666666666666 0.5 0.16666666666666666 0.004629629629629629
 0.3333333333333333 0.5 0.16666666666666666 0.004629629629629629
 0.5 0.5 0.16666666666666666 0.004629629629629629
 0.6666666666666666 0.5 0.16666666666666666 0.004629629629629629
 0.8333333333333334 0.5 0.16666666666666666 0.004629629629629629
 0.0 0.6666666666666666 0.16666666666666666 0.004629629629629629
 0.16666666666666666 0.6666666666666666 0.16666666666666666 0.004629629629629629
 0.3333333333333333 0.6666666666666666 0.16666666666666666 0.004629629629629629
 0.5 0.6666666666666666 0.16666666666666666 0.004629629629629629
 0.6666666666666666 0.6666666666666666 0.16666666666666666 0.004629629629629629
 0.8333333333333334 0.6666666666666666 0.16666666666666666 0.004629629629629629
 0.0 0.8333333333333334 0.16666666666666666 0.004629629629629629
 0.16666666666666666 0.8333333333333334 0.16666666666666666 0.004629629629629629
 0.3333333333333333 0.8333333333333334 0.16666666666666666 0.004629629629629629
 0.5 0.8333333333333334 0.16666666666666666 0.004629629629629629
 0.6666666666666666 0.8333333333333334 0.16666666666666666 0.004629629629629629
 0.8333333333333334 0.8333333333333334 0.16666666666666666 0.004629629629629629
 0.0 0.0 0.3333333333333333 0.004629629629629629
 0.16666666666666666 0.0 0.3333333333333333 0.004629629629629629
 0.3333333333333333 0.0 0.3333333333333333 0.004629629629629629
 0.5 0.0 0.3333333333333333 0.004629629629629629
 0.6666666666666666 0.0 0.3333333333333333 0.004629629629629629
 0.8333333333333334 0.0 0.3333333333333333 0.004629629629629629
 0.0 0.16666666666666666 0.3333333333333333 0.004629629629629629
 0.16666666666666666 0.16666666666666666 0.3333333333333333 0.004629629629629629
 0.3333333333333333 0.16666666666666666 0.3333333333333333 0.004629629629629629
 0.5 0.16666666666666666 0.3333333333333333 0.004629629629629629
 0.6666666666666666 0.16666666666666666 0.3333333333333333 0.004629629629629629
 0.8333333333333334 0.16666666666666666 0.3333333333333333 0.004629629629629629
 0.0 0.3333333333333333 0.3333333333333333 0.004629629629629629
 0.16666666666666666 0.3333333333333333 0.3333333333333333 0.004629629629629629
 0.3333333333333333 0.3333333333333333 0.3333333333333333 0.004629629629629629
 0.5 0.3333333333333333 0.3333333333333333 0.004629629629629629
 0.6666666666666666 0.3333333333333333 0.3333333333333333 0.004629629629629629
 0.8333333333333334 0.3333333333333333 0.3333333333333333 0.004629629629629629
 0.0 0.5 0.3333333333333333 0.004629629629629629
 0.16666666666666666 0.5 0.3333333333333333 0.004629629629629629
 0.3333333333333333 0.5 0.3333333333333333 0.004629629629629629
 0.5 0.5 0.3333333333333333 0.004629629629629629
 0.6666666666666666 0.5 0.3333333333333333 0.004629629629629629
 0.8333333333333334 0.5 0.3333333333333333 0.004629629629629629
 0.0 0.6666666666666666 0.3333333333333333 0.004629629629629629
 0.16666666666666666 0.6666666666666666 0.3333333333333333 0.004629629629629629
 0.3333333333333333 0.6666666666666666 0.3333333333333333 0.004629629629629629
 0.5 0.6666666666666666 0.3333333333333333 0.004629629629629629
 0.6666666666666666 0.6666666666666666 0.3333333333333333 0.004629629629629629
 0.8333333333333334 0.6666666666666666 0.3333333333333333 0.004629629629629629
 0.0 0.8333333333333334 0.3333333333333333 0.004629629629629629
 0.16666666666666666 0.8333333333333334 0.3333333333333333 0.004629629629629629
 0.3333333333333333 0.8333333333333334 0.3333333333333333 0.004629629629629629
 0.5 0.8333333333333334 0.3333333333333333 0.004629629629629629
 0.6666666666666666 0.8333333333333334 0.3333333333333333 0.004629629629629629
 0.8333333333333334 0.8333333333333334 0.3333333333333333 0.004629629629629629
 0.0 0.0 0.5 0.004629629629629629
 0.16666666666666666 0.0 0.5 0.004629629629629629
 0.3333333333333333 0.0 0.5 0.004629629629629629
 0.5 0.0 0.5 0.004629629629629629
 0.6666666666666666 0.0 0.5 0.004629629629629629
 0.8333333333333334 0.0 0.5 0.004629629629629629
 0.0 0.16666666666666666 0.5 0.004629629629629629
 0.16666666666666666 0.16666666666666666 0.5 0.004629629629629629
 0.3333333333333333 0.16666666666666666 0.5 0.004629629629629629
 0.5 0.16666666666666666 0.5 0.004629629629629629
 0.6666666666666666 0.16666666666666666 0.5 0.004629629629629629
 0.8333333333333334 0.16666666666666666 0.5 0.004629629629629629
 0.0 0.3333333333333333 0.5 0.004629629629629629
 0.16666666666666666 0.3333333333333333 0.5 0.004629629629629629
 0.3333333333333333 0.3333333333333333 0.5 0.004629629629629629
 0.5 0.3333333333333333 0.5 0.004629629629629629
 0.6666666666666666 0.3333333333333333 0.5 0.004629629629629629
 0.8333333333333334 0.3333333333333333 0.5 0.004629629629629629
 0.0 0.5 0.5 0.004629629629629629
 0.16666666666666666 0.5 0.5 0.004629629629629629
 0.3333333333333333 0.5 0.5 0.004629629629629629
 0.5 0.5 0.5 0.004629629629629629
 0.6666666666666666 0.5 0.5 0.004629629629629629
 0.8333333333333334 0.5 0.5 0.004629629629629629
 0.0 0.6666666666666666 0.5 0.004629629629629629
 0.16666666666666666 0.6666666666666666 0.5 0.004629629629629629
 0.3333333333333333 0.6666666666666666 0.5 0.004629629629629629
 0.5 0.6666666666666666 0.5 0.004629629629629629
 0.6666666666666666 0.6666666666666666 0.5 0.004629629629629629
 0.8333333333333334 0.6666666666666666 0.5 0.004629629629629629
 0.0 0.8333333333333334 0.5 0.004629629629629629
 0.16666666666666666 0.8333333333333334 0.5 0.004629629629629629
 0.3333333333333333 0.8333333333333334 0.5 0.004629629629629629
 0.5 0.8333333333333334 0.5 0.004629629629629629
 0.6666666666666666 0.8333333333333334 0.5 0.004629629629629629
 0.8333333333333334 0.8333333333333334 0.5 0.004629629629629629
 0.0 0.0 0.6666666666666666 0.004629629629629629
 0.16666666666666666 0.0 0.6666666666666666 0.004629629629629629
 0.3333333333333333 0.0 0.6666666666666666 0.004629629629629629
 0.5 0.0 0.6666666666666666 0.004629629629629629
 0.6666666666666666 0.0 0.6666666666666666 0.004629629629629629
 0.8333333333333334 0.0 0.6666666666666666 0.004629629629629629
 0.0 0.16666666666666666 0.6666666666666666 0.004629629629629629
 0.16666666666666666 0.16666666666666666 0.6666666666666666 0.004629629629629629
 0.3333333333333333 0.16666666666666666 0.6666666666666666 0.004629629629629629
 0.5 0.16666666666666666 0.6666666666666666 0.004629629629629629
 0.6666666666666666 0.16666666666666666 0.6666666666666666 0.004629629629629629
 0.8333333333333334 0.16666666666666666 0.6666666666666666 0.004629629629629629
 0.0 0.3333333333333333 0.6666666666666666 0.004629629629629629
 0.16666666666666666 0.3333333333333333 0.6666666666666666 0.004629629629629629
 0.3333333333333333 0.3333333333333333 0.6666666666666666 0.004629629629629629
 0.5 0.3333333333333333 0.6666666666666666 0.004629629629629629
 0.6666666666666666 0.3333333333333333 0.6666666666666666 0.004629629629629629
 0.8333333333333334 0.3333333333333333 0.6666666666666666 0.004629629629629629
 0.0 0.5 0.6666666666666666 0.004629629629629629
 0.16666666666666666 0.5 0.6666666666666666 0.004629629629629629
 0.3333333333333333 0.5 0.6666666666666666 0.004629629629629629
 0.5 0.5 0.6666666666666666 0.004629629629629629
 0.6666666666666666 0.5 0.6666666666666666 0.004629629629629629
 0.8333333333333334 0.5 0.6666666666666666 0.004629629629629629
 0.0 0.6666666666666666 0.6666666666666666 0.004629629629629629
 0.16666666666666666 0.6666666666666666 0.6666666666666666 0.004629629629629629
 0.3333333333333333 0.6666666666666666 0.6666666666666666 0.004629629629629629
 0.5 0.6666666666666666 0.6666666666666666 0.004629629629629629
 0.6666666666666666 0.6666666666666666 0.6666666666666666 0.004629629629629629
 0.8333333333333334 0.6666666666666666 0.6666666666666666 0.004629629629629629
 0.0 0.8333333333333334 0.6666666666666666 0.004629629629629629
 0.16666666666666666 0.8333333333333334 0.6666666666666666 0.004629629629629629
 0.3333333333333333 0.8333333333333334 0.6666666666666666 0.004629629629629629
 0.5 0.8333333333333334 0.6666666666666666 0.004629629629629629
 0.6666666666666666 0.8333333333333334 0.6666666666666666 0.004629629629629629
 0.8333333333333334 0.8333333333333334 0.6666666666666666 0.004629629629629629
 0.0 0.0 0.8333333333333334 0.004629629629629629
 0.16666666666666666 0.0 0.8333333333333334 0.004629629629629629
 0.3333333333333333 0.0 0.8333333333333334 0.004629629629629629
 0.5 0.0 0.8333333333333334 0.004629629629629629
 0.6666666666666666 0.0 0.8333333333333334 0.004629629629629629
 0.8333333333333334 0.0 0.8333333333333334 0.004629629629629629
 0.0 0.16666666666666666 0.8333333333333334 0.004629629629629629
 0.16666666666666666 0.16666666666666666 0.8333333333333334 0.004629629629629629
 0.3333333333333333 0.16666666666666666 0.8333333333333334 0.004629629629629629
 0.5 0.16666666666666666 0.8333333333333334 0.004629629629629629
 0.6666666666666666 0.16666666666666666 0.8333333333333334 0.004629629629629629
 0.8333333333333334 0.16666666666666666 0.8333333333333334 0.004629629629629629
 0.0 0.3333333333333333 0.8333333333333334 0.004629629629629629
 0.16666666666666666 0.3333333333333333 0.8333333333333334 0.004629629629629629
 0.3333333333333333 0.3333333333333333 0.8333333333333334 0.004629629629629629
 0.5 0.3333333333333333 0.8333333333333334 0.004629629629629629
 0.6666666666666666 0.3333333333333333 0.8333333333333334 0.004629629629629629
 0.8333333333333334 0.3333333333333333 0.8333333333333334 0.004629629629629629
 0.0 0.5 0.8333333333333334 0.004629629629629629
 0.16666666666666666 0.5 0.8333333333333334 0.004629629629629629
 0.3333333333333333 0.5 0.8333333333333334 0.004629629629629629
 0.5 0.5 0.8333333333333334 0.004629629629629629
 0.6666666666666666 0.5 0.8333333333333334 0.004629629629629629
 0.8333333333333334 0.5 0.8333333333333334 0.004629629629629629
 0.0 0.6666666666666666 0.8333333333333334 0.004629629629629629
 0.16666666666666666 0.6666666666666666 0.8333333333333334 0.004629629629629629
 0.3333333333333333 0.6666666666666666 0.8333333333333334 0.004629629629629629
 0.5 0.6666666666666666 0.8333333333333334 0.004629629629629629
 0.6666666666666666 0.6666666666666666 0.8333333333333334 0.004629629629629629
 0.8333333333333334 0.6666666666666666 0.8333333333333334 0.004629629629629629
 0.0 0.8333333333333334 0.8333333333333334 0.004629629629629629
 0.16666666666666666 0.8333333333333334 0.8333333333333334 0.004629629629629629
 0.3333333333333333 0.8333333333333334 0.8333333333333334 0.004629629629629629
 0.5 0.8333333333333334 0.8333333333333334 0.004629629629629629
 0.6666666666666666 0.8333333333333334 0.8333333333333334 0.004629629629629629
 0.8333333333333334 0.8333333333333334 0.8333333333333334 0.004629629629629629

