&projwfc
  prefix = 'Si'
  Emin = -10.0
  Emax = 10.0
  DeltaE = 0.2
  ngauss = 0
  outdir = './outputs'
  degauss = 0.0
/

