&control
    calculation = 'nscf',
    prefix='pwo', pseudo_dir = './', outdir='./',
    disk_io = 'low', verbosity = 'high'
/
&system
    ibrav = 0, nat = 2, ntyp = 2,
    nbnd=24,
 nosym=.true.,
! noinv=.true.
    nspin = 2, starting_magnetization(2) = -0.00000001,
    ecutwfc =28, ecutrho =250,
    occupations = 'smearing', smearing = 'cold', degauss = 0.01,
 /
&electrons
    diagonalization='david',
    mixing_mode = 'plain', mixing_beta = 0.3,
    diago_full_acc = .true.
    conv_thr =  1.0e-8
/
&ions
    ion_dynamics='bfgs',
/
&cell
    cell_dynamics = 'bfgs'
    press = 0
/
ATOMIC_SPECIES
Ge  50  Ge.pbesol-dn-kjpaw_psl.0.2.2.UPF
Te  50  Te.pbesol-dn-kjpaw_psl.0.2.2.UPF
CELL_PARAMETERS (bohr)
4.554313680024923        0.             6.686168075203066
-2.277156843956613       3.944151345    6.686168075203066
-2.277156843956613      -3.944151345    6.686168075203066
ATOMIC_POSITIONS (crystal)
Te       0.523252856   0.523252856   0.523252856
Ge      -0.002252856  -0.002252856  -0.002252856
K_POINTS (crystal)
1728
  0.00000000  0.00000000  0.00000000  5.787037e-04
  0.00000000  0.00000000  0.08333333  5.787037e-04
  0.00000000  0.00000000  0.16666667  5.787037e-04
  0.00000000  0.00000000  0.25000000  5.787037e-04
  0.00000000  0.00000000  0.33333333  5.787037e-04
  0.00000000  0.00000000  0.41666667  5.787037e-04
  0.00000000  0.00000000  0.50000000  5.787037e-04
  0.00000000  0.00000000  0.58333333  5.787037e-04
  0.00000000  0.00000000  0.66666667  5.787037e-04
  0.00000000  0.00000000  0.75000000  5.787037e-04
  0.00000000  0.00000000  0.83333333  5.787037e-04
  0.00000000  0.00000000  0.91666667  5.787037e-04
  0.00000000  0.08333333  0.00000000  5.787037e-04
  0.00000000  0.08333333  0.08333333  5.787037e-04
  0.00000000  0.08333333  0.16666667  5.787037e-04
  0.00000000  0.08333333  0.25000000  5.787037e-04
  0.00000000  0.08333333  0.33333333  5.787037e-04
  0.00000000  0.08333333  0.41666667  5.787037e-04
  0.00000000  0.08333333  0.50000000  5.787037e-04
  0.00000000  0.08333333  0.58333333  5.787037e-04
  0.00000000  0.08333333  0.66666667  5.787037e-04
  0.00000000  0.08333333  0.75000000  5.787037e-04
  0.00000000  0.08333333  0.83333333  5.787037e-04
  0.00000000  0.08333333  0.91666667  5.787037e-04
  0.00000000  0.16666667  0.00000000  5.787037e-04
  0.00000000  0.16666667  0.08333333  5.787037e-04
  0.00000000  0.16666667  0.16666667  5.787037e-04
  0.00000000  0.16666667  0.25000000  5.787037e-04
  0.00000000  0.16666667  0.33333333  5.787037e-04
  0.00000000  0.16666667  0.41666667  5.787037e-04
  0.00000000  0.16666667  0.50000000  5.787037e-04
  0.00000000  0.16666667  0.58333333  5.787037e-04
  0.00000000  0.16666667  0.66666667  5.787037e-04
  0.00000000  0.16666667  0.75000000  5.787037e-04
  0.00000000  0.16666667  0.83333333  5.787037e-04
  0.00000000  0.16666667  0.91666667  5.787037e-04
  0.00000000  0.25000000  0.00000000  5.787037e-04
  0.00000000  0.25000000  0.08333333  5.787037e-04
  0.00000000  0.25000000  0.16666667  5.787037e-04
  0.00000000  0.25000000  0.25000000  5.787037e-04
  0.00000000  0.25000000  0.33333333  5.787037e-04
  0.00000000  0.25000000  0.41666667  5.787037e-04
  0.00000000  0.25000000  0.50000000  5.787037e-04
  0.00000000  0.25000000  0.58333333  5.787037e-04
  0.00000000  0.25000000  0.66666667  5.787037e-04
  0.00000000  0.25000000  0.75000000  5.787037e-04
  0.00000000  0.25000000  0.83333333  5.787037e-04
  0.00000000  0.25000000  0.91666667  5.787037e-04
  0.00000000  0.33333333  0.00000000  5.787037e-04
  0.00000000  0.33333333  0.08333333  5.787037e-04
  0.00000000  0.33333333  0.16666667  5.787037e-04
  0.00000000  0.33333333  0.25000000  5.787037e-04
  0.00000000  0.33333333  0.33333333  5.787037e-04
  0.00000000  0.33333333  0.41666667  5.787037e-04
  0.00000000  0.33333333  0.50000000  5.787037e-04
  0.00000000  0.33333333  0.58333333  5.787037e-04
  0.00000000  0.33333333  0.66666667  5.787037e-04
  0.00000000  0.33333333  0.75000000  5.787037e-04
  0.00000000  0.33333333  0.83333333  5.787037e-04
  0.00000000  0.33333333  0.91666667  5.787037e-04
  0.00000000  0.41666667  0.00000000  5.787037e-04
  0.00000000  0.41666667  0.08333333  5.787037e-04
  0.00000000  0.41666667  0.16666667  5.787037e-04
  0.00000000  0.41666667  0.25000000  5.787037e-04
  0.00000000  0.41666667  0.33333333  5.787037e-04
  0.00000000  0.41666667  0.41666667  5.787037e-04
  0.00000000  0.41666667  0.50000000  5.787037e-04
  0.00000000  0.41666667  0.58333333  5.787037e-04
  0.00000000  0.41666667  0.66666667  5.787037e-04
  0.00000000  0.41666667  0.75000000  5.787037e-04
  0.00000000  0.41666667  0.83333333  5.787037e-04
  0.00000000  0.41666667  0.91666667  5.787037e-04
  0.00000000  0.50000000  0.00000000  5.787037e-04
  0.00000000  0.50000000  0.08333333  5.787037e-04
  0.00000000  0.50000000  0.16666667  5.787037e-04
  0.00000000  0.50000000  0.25000000  5.787037e-04
  0.00000000  0.50000000  0.33333333  5.787037e-04
  0.00000000  0.50000000  0.41666667  5.787037e-04
  0.00000000  0.50000000  0.50000000  5.787037e-04
  0.00000000  0.50000000  0.58333333  5.787037e-04
  0.00000000  0.50000000  0.66666667  5.787037e-04
  0.00000000  0.50000000  0.75000000  5.787037e-04
  0.00000000  0.50000000  0.83333333  5.787037e-04
  0.00000000  0.50000000  0.91666667  5.787037e-04
  0.00000000  0.58333333  0.00000000  5.787037e-04
  0.00000000  0.58333333  0.08333333  5.787037e-04
  0.00000000  0.58333333  0.16666667  5.787037e-04
  0.00000000  0.58333333  0.25000000  5.787037e-04
  0.00000000  0.58333333  0.33333333  5.787037e-04
  0.00000000  0.58333333  0.41666667  5.787037e-04
  0.00000000  0.58333333  0.50000000  5.787037e-04
  0.00000000  0.58333333  0.58333333  5.787037e-04
  0.00000000  0.58333333  0.66666667  5.787037e-04
  0.00000000  0.58333333  0.75000000  5.787037e-04
  0.00000000  0.58333333  0.83333333  5.787037e-04
  0.00000000  0.58333333  0.91666667  5.787037e-04
  0.00000000  0.66666667  0.00000000  5.787037e-04
  0.00000000  0.66666667  0.08333333  5.787037e-04
  0.00000000  0.66666667  0.16666667  5.787037e-04
  0.00000000  0.66666667  0.25000000  5.787037e-04
  0.00000000  0.66666667  0.33333333  5.787037e-04
  0.00000000  0.66666667  0.41666667  5.787037e-04
  0.00000000  0.66666667  0.50000000  5.787037e-04
  0.00000000  0.66666667  0.58333333  5.787037e-04
  0.00000000  0.66666667  0.66666667  5.787037e-04
  0.00000000  0.66666667  0.75000000  5.787037e-04
  0.00000000  0.66666667  0.83333333  5.787037e-04
  0.00000000  0.66666667  0.91666667  5.787037e-04
  0.00000000  0.75000000  0.00000000  5.787037e-04
  0.00000000  0.75000000  0.08333333  5.787037e-04
  0.00000000  0.75000000  0.16666667  5.787037e-04
  0.00000000  0.75000000  0.25000000  5.787037e-04
  0.00000000  0.75000000  0.33333333  5.787037e-04
  0.00000000  0.75000000  0.41666667  5.787037e-04
  0.00000000  0.75000000  0.50000000  5.787037e-04
  0.00000000  0.75000000  0.58333333  5.787037e-04
  0.00000000  0.75000000  0.66666667  5.787037e-04
  0.00000000  0.75000000  0.75000000  5.787037e-04
  0.00000000  0.75000000  0.83333333  5.787037e-04
  0.00000000  0.75000000  0.91666667  5.787037e-04
  0.00000000  0.83333333  0.00000000  5.787037e-04
  0.00000000  0.83333333  0.08333333  5.787037e-04
  0.00000000  0.83333333  0.16666667  5.787037e-04
  0.00000000  0.83333333  0.25000000  5.787037e-04
  0.00000000  0.83333333  0.33333333  5.787037e-04
  0.00000000  0.83333333  0.41666667  5.787037e-04
  0.00000000  0.83333333  0.50000000  5.787037e-04
  0.00000000  0.83333333  0.58333333  5.787037e-04
  0.00000000  0.83333333  0.66666667  5.787037e-04
  0.00000000  0.83333333  0.75000000  5.787037e-04
  0.00000000  0.83333333  0.83333333  5.787037e-04
  0.00000000  0.83333333  0.91666667  5.787037e-04
  0.00000000  0.91666667  0.00000000  5.787037e-04
  0.00000000  0.91666667  0.08333333  5.787037e-04
  0.00000000  0.91666667  0.16666667  5.787037e-04
  0.00000000  0.91666667  0.25000000  5.787037e-04
  0.00000000  0.91666667  0.33333333  5.787037e-04
  0.00000000  0.91666667  0.41666667  5.787037e-04
  0.00000000  0.91666667  0.50000000  5.787037e-04
  0.00000000  0.91666667  0.58333333  5.787037e-04
  0.00000000  0.91666667  0.66666667  5.787037e-04
  0.00000000  0.91666667  0.75000000  5.787037e-04
  0.00000000  0.91666667  0.83333333  5.787037e-04
  0.00000000  0.91666667  0.91666667  5.787037e-04
  0.08333333  0.00000000  0.00000000  5.787037e-04
  0.08333333  0.00000000  0.08333333  5.787037e-04
  0.08333333  0.00000000  0.16666667  5.787037e-04
  0.08333333  0.00000000  0.25000000  5.787037e-04
  0.08333333  0.00000000  0.33333333  5.787037e-04
  0.08333333  0.00000000  0.41666667  5.787037e-04
  0.08333333  0.00000000  0.50000000  5.787037e-04
  0.08333333  0.00000000  0.58333333  5.787037e-04
  0.08333333  0.00000000  0.66666667  5.787037e-04
  0.08333333  0.00000000  0.75000000  5.787037e-04
  0.08333333  0.00000000  0.83333333  5.787037e-04
  0.08333333  0.00000000  0.91666667  5.787037e-04
  0.08333333  0.08333333  0.00000000  5.787037e-04
  0.08333333  0.08333333  0.08333333  5.787037e-04
  0.08333333  0.08333333  0.16666667  5.787037e-04
  0.08333333  0.08333333  0.25000000  5.787037e-04
  0.08333333  0.08333333  0.33333333  5.787037e-04
  0.08333333  0.08333333  0.41666667  5.787037e-04
  0.08333333  0.08333333  0.50000000  5.787037e-04
  0.08333333  0.08333333  0.58333333  5.787037e-04
  0.08333333  0.08333333  0.66666667  5.787037e-04
  0.08333333  0.08333333  0.75000000  5.787037e-04
  0.08333333  0.08333333  0.83333333  5.787037e-04
  0.08333333  0.08333333  0.91666667  5.787037e-04
  0.08333333  0.16666667  0.00000000  5.787037e-04
  0.08333333  0.16666667  0.08333333  5.787037e-04
  0.08333333  0.16666667  0.16666667  5.787037e-04
  0.08333333  0.16666667  0.25000000  5.787037e-04
  0.08333333  0.16666667  0.33333333  5.787037e-04
  0.08333333  0.16666667  0.41666667  5.787037e-04
  0.08333333  0.16666667  0.50000000  5.787037e-04
  0.08333333  0.16666667  0.58333333  5.787037e-04
  0.08333333  0.16666667  0.66666667  5.787037e-04
  0.08333333  0.16666667  0.75000000  5.787037e-04
  0.08333333  0.16666667  0.83333333  5.787037e-04
  0.08333333  0.16666667  0.91666667  5.787037e-04
  0.08333333  0.25000000  0.00000000  5.787037e-04
  0.08333333  0.25000000  0.08333333  5.787037e-04
  0.08333333  0.25000000  0.16666667  5.787037e-04
  0.08333333  0.25000000  0.25000000  5.787037e-04
  0.08333333  0.25000000  0.33333333  5.787037e-04
  0.08333333  0.25000000  0.41666667  5.787037e-04
  0.08333333  0.25000000  0.50000000  5.787037e-04
  0.08333333  0.25000000  0.58333333  5.787037e-04
  0.08333333  0.25000000  0.66666667  5.787037e-04
  0.08333333  0.25000000  0.75000000  5.787037e-04
  0.08333333  0.25000000  0.83333333  5.787037e-04
  0.08333333  0.25000000  0.91666667  5.787037e-04
  0.08333333  0.33333333  0.00000000  5.787037e-04
  0.08333333  0.33333333  0.08333333  5.787037e-04
  0.08333333  0.33333333  0.16666667  5.787037e-04
  0.08333333  0.33333333  0.25000000  5.787037e-04
  0.08333333  0.33333333  0.33333333  5.787037e-04
  0.08333333  0.33333333  0.41666667  5.787037e-04
  0.08333333  0.33333333  0.50000000  5.787037e-04
  0.08333333  0.33333333  0.58333333  5.787037e-04
  0.08333333  0.33333333  0.66666667  5.787037e-04
  0.08333333  0.33333333  0.75000000  5.787037e-04
  0.08333333  0.33333333  0.83333333  5.787037e-04
  0.08333333  0.33333333  0.91666667  5.787037e-04
  0.08333333  0.41666667  0.00000000  5.787037e-04
  0.08333333  0.41666667  0.08333333  5.787037e-04
  0.08333333  0.41666667  0.16666667  5.787037e-04
  0.08333333  0.41666667  0.25000000  5.787037e-04
  0.08333333  0.41666667  0.33333333  5.787037e-04
  0.08333333  0.41666667  0.41666667  5.787037e-04
  0.08333333  0.41666667  0.50000000  5.787037e-04
  0.08333333  0.41666667  0.58333333  5.787037e-04
  0.08333333  0.41666667  0.66666667  5.787037e-04
  0.08333333  0.41666667  0.75000000  5.787037e-04
  0.08333333  0.41666667  0.83333333  5.787037e-04
  0.08333333  0.41666667  0.91666667  5.787037e-04
  0.08333333  0.50000000  0.00000000  5.787037e-04
  0.08333333  0.50000000  0.08333333  5.787037e-04
  0.08333333  0.50000000  0.16666667  5.787037e-04
  0.08333333  0.50000000  0.25000000  5.787037e-04
  0.08333333  0.50000000  0.33333333  5.787037e-04
  0.08333333  0.50000000  0.41666667  5.787037e-04
  0.08333333  0.50000000  0.50000000  5.787037e-04
  0.08333333  0.50000000  0.58333333  5.787037e-04
  0.08333333  0.50000000  0.66666667  5.787037e-04
  0.08333333  0.50000000  0.75000000  5.787037e-04
  0.08333333  0.50000000  0.83333333  5.787037e-04
  0.08333333  0.50000000  0.91666667  5.787037e-04
  0.08333333  0.58333333  0.00000000  5.787037e-04
  0.08333333  0.58333333  0.08333333  5.787037e-04
  0.08333333  0.58333333  0.16666667  5.787037e-04
  0.08333333  0.58333333  0.25000000  5.787037e-04
  0.08333333  0.58333333  0.33333333  5.787037e-04
  0.08333333  0.58333333  0.41666667  5.787037e-04
  0.08333333  0.58333333  0.50000000  5.787037e-04
  0.08333333  0.58333333  0.58333333  5.787037e-04
  0.08333333  0.58333333  0.66666667  5.787037e-04
  0.08333333  0.58333333  0.75000000  5.787037e-04
  0.08333333  0.58333333  0.83333333  5.787037e-04
  0.08333333  0.58333333  0.91666667  5.787037e-04
  0.08333333  0.66666667  0.00000000  5.787037e-04
  0.08333333  0.66666667  0.08333333  5.787037e-04
  0.08333333  0.66666667  0.16666667  5.787037e-04
  0.08333333  0.66666667  0.25000000  5.787037e-04
  0.08333333  0.66666667  0.33333333  5.787037e-04
  0.08333333  0.66666667  0.41666667  5.787037e-04
  0.08333333  0.66666667  0.50000000  5.787037e-04
  0.08333333  0.66666667  0.58333333  5.787037e-04
  0.08333333  0.66666667  0.66666667  5.787037e-04
  0.08333333  0.66666667  0.75000000  5.787037e-04
  0.08333333  0.66666667  0.83333333  5.787037e-04
  0.08333333  0.66666667  0.91666667  5.787037e-04
  0.08333333  0.75000000  0.00000000  5.787037e-04
  0.08333333  0.75000000  0.08333333  5.787037e-04
  0.08333333  0.75000000  0.16666667  5.787037e-04
  0.08333333  0.75000000  0.25000000  5.787037e-04
  0.08333333  0.75000000  0.33333333  5.787037e-04
  0.08333333  0.75000000  0.41666667  5.787037e-04
  0.08333333  0.75000000  0.50000000  5.787037e-04
  0.08333333  0.75000000  0.58333333  5.787037e-04
  0.08333333  0.75000000  0.66666667  5.787037e-04
  0.08333333  0.75000000  0.75000000  5.787037e-04
  0.08333333  0.75000000  0.83333333  5.787037e-04
  0.08333333  0.75000000  0.91666667  5.787037e-04
  0.08333333  0.83333333  0.00000000  5.787037e-04
  0.08333333  0.83333333  0.08333333  5.787037e-04
  0.08333333  0.83333333  0.16666667  5.787037e-04
  0.08333333  0.83333333  0.25000000  5.787037e-04
  0.08333333  0.83333333  0.33333333  5.787037e-04
  0.08333333  0.83333333  0.41666667  5.787037e-04
  0.08333333  0.83333333  0.50000000  5.787037e-04
  0.08333333  0.83333333  0.58333333  5.787037e-04
  0.08333333  0.83333333  0.66666667  5.787037e-04
  0.08333333  0.83333333  0.75000000  5.787037e-04
  0.08333333  0.83333333  0.83333333  5.787037e-04
  0.08333333  0.83333333  0.91666667  5.787037e-04
  0.08333333  0.91666667  0.00000000  5.787037e-04
  0.08333333  0.91666667  0.08333333  5.787037e-04
  0.08333333  0.91666667  0.16666667  5.787037e-04
  0.08333333  0.91666667  0.25000000  5.787037e-04
  0.08333333  0.91666667  0.33333333  5.787037e-04
  0.08333333  0.91666667  0.41666667  5.787037e-04
  0.08333333  0.91666667  0.50000000  5.787037e-04
  0.08333333  0.91666667  0.58333333  5.787037e-04
  0.08333333  0.91666667  0.66666667  5.787037e-04
  0.08333333  0.91666667  0.75000000  5.787037e-04
  0.08333333  0.91666667  0.83333333  5.787037e-04
  0.08333333  0.91666667  0.91666667  5.787037e-04
  0.16666667  0.00000000  0.00000000  5.787037e-04
  0.16666667  0.00000000  0.08333333  5.787037e-04
  0.16666667  0.00000000  0.16666667  5.787037e-04
  0.16666667  0.00000000  0.25000000  5.787037e-04
  0.16666667  0.00000000  0.33333333  5.787037e-04
  0.16666667  0.00000000  0.41666667  5.787037e-04
  0.16666667  0.00000000  0.50000000  5.787037e-04
  0.16666667  0.00000000  0.58333333  5.787037e-04
  0.16666667  0.00000000  0.66666667  5.787037e-04
  0.16666667  0.00000000  0.75000000  5.787037e-04
  0.16666667  0.00000000  0.83333333  5.787037e-04
  0.16666667  0.00000000  0.91666667  5.787037e-04
  0.16666667  0.08333333  0.00000000  5.787037e-04
  0.16666667  0.08333333  0.08333333  5.787037e-04
  0.16666667  0.08333333  0.16666667  5.787037e-04
  0.16666667  0.08333333  0.25000000  5.787037e-04
  0.16666667  0.08333333  0.33333333  5.787037e-04
  0.16666667  0.08333333  0.41666667  5.787037e-04
  0.16666667  0.08333333  0.50000000  5.787037e-04
  0.16666667  0.08333333  0.58333333  5.787037e-04
  0.16666667  0.08333333  0.66666667  5.787037e-04
  0.16666667  0.08333333  0.75000000  5.787037e-04
  0.16666667  0.08333333  0.83333333  5.787037e-04
  0.16666667  0.08333333  0.91666667  5.787037e-04
  0.16666667  0.16666667  0.00000000  5.787037e-04
  0.16666667  0.16666667  0.08333333  5.787037e-04
  0.16666667  0.16666667  0.16666667  5.787037e-04
  0.16666667  0.16666667  0.25000000  5.787037e-04
  0.16666667  0.16666667  0.33333333  5.787037e-04
  0.16666667  0.16666667  0.41666667  5.787037e-04
  0.16666667  0.16666667  0.50000000  5.787037e-04
  0.16666667  0.16666667  0.58333333  5.787037e-04
  0.16666667  0.16666667  0.66666667  5.787037e-04
  0.16666667  0.16666667  0.75000000  5.787037e-04
  0.16666667  0.16666667  0.83333333  5.787037e-04
  0.16666667  0.16666667  0.91666667  5.787037e-04
  0.16666667  0.25000000  0.00000000  5.787037e-04
  0.16666667  0.25000000  0.08333333  5.787037e-04
  0.16666667  0.25000000  0.16666667  5.787037e-04
  0.16666667  0.25000000  0.25000000  5.787037e-04
  0.16666667  0.25000000  0.33333333  5.787037e-04
  0.16666667  0.25000000  0.41666667  5.787037e-04
  0.16666667  0.25000000  0.50000000  5.787037e-04
  0.16666667  0.25000000  0.58333333  5.787037e-04
  0.16666667  0.25000000  0.66666667  5.787037e-04
  0.16666667  0.25000000  0.75000000  5.787037e-04
  0.16666667  0.25000000  0.83333333  5.787037e-04
  0.16666667  0.25000000  0.91666667  5.787037e-04
  0.16666667  0.33333333  0.00000000  5.787037e-04
  0.16666667  0.33333333  0.08333333  5.787037e-04
  0.16666667  0.33333333  0.16666667  5.787037e-04
  0.16666667  0.33333333  0.25000000  5.787037e-04
  0.16666667  0.33333333  0.33333333  5.787037e-04
  0.16666667  0.33333333  0.41666667  5.787037e-04
  0.16666667  0.33333333  0.50000000  5.787037e-04
  0.16666667  0.33333333  0.58333333  5.787037e-04
  0.16666667  0.33333333  0.66666667  5.787037e-04
  0.16666667  0.33333333  0.75000000  5.787037e-04
  0.16666667  0.33333333  0.83333333  5.787037e-04
  0.16666667  0.33333333  0.91666667  5.787037e-04
  0.16666667  0.41666667  0.00000000  5.787037e-04
  0.16666667  0.41666667  0.08333333  5.787037e-04
  0.16666667  0.41666667  0.16666667  5.787037e-04
  0.16666667  0.41666667  0.25000000  5.787037e-04
  0.16666667  0.41666667  0.33333333  5.787037e-04
  0.16666667  0.41666667  0.41666667  5.787037e-04
  0.16666667  0.41666667  0.50000000  5.787037e-04
  0.16666667  0.41666667  0.58333333  5.787037e-04
  0.16666667  0.41666667  0.66666667  5.787037e-04
  0.16666667  0.41666667  0.75000000  5.787037e-04
  0.16666667  0.41666667  0.83333333  5.787037e-04
  0.16666667  0.41666667  0.91666667  5.787037e-04
  0.16666667  0.50000000  0.00000000  5.787037e-04
  0.16666667  0.50000000  0.08333333  5.787037e-04
  0.16666667  0.50000000  0.16666667  5.787037e-04
  0.16666667  0.50000000  0.25000000  5.787037e-04
  0.16666667  0.50000000  0.33333333  5.787037e-04
  0.16666667  0.50000000  0.41666667  5.787037e-04
  0.16666667  0.50000000  0.50000000  5.787037e-04
  0.16666667  0.50000000  0.58333333  5.787037e-04
  0.16666667  0.50000000  0.66666667  5.787037e-04
  0.16666667  0.50000000  0.75000000  5.787037e-04
  0.16666667  0.50000000  0.83333333  5.787037e-04
  0.16666667  0.50000000  0.91666667  5.787037e-04
  0.16666667  0.58333333  0.00000000  5.787037e-04
  0.16666667  0.58333333  0.08333333  5.787037e-04
  0.16666667  0.58333333  0.16666667  5.787037e-04
  0.16666667  0.58333333  0.25000000  5.787037e-04
  0.16666667  0.58333333  0.33333333  5.787037e-04
  0.16666667  0.58333333  0.41666667  5.787037e-04
  0.16666667  0.58333333  0.50000000  5.787037e-04
  0.16666667  0.58333333  0.58333333  5.787037e-04
  0.16666667  0.58333333  0.66666667  5.787037e-04
  0.16666667  0.58333333  0.75000000  5.787037e-04
  0.16666667  0.58333333  0.83333333  5.787037e-04
  0.16666667  0.58333333  0.91666667  5.787037e-04
  0.16666667  0.66666667  0.00000000  5.787037e-04
  0.16666667  0.66666667  0.08333333  5.787037e-04
  0.16666667  0.66666667  0.16666667  5.787037e-04
  0.16666667  0.66666667  0.25000000  5.787037e-04
  0.16666667  0.66666667  0.33333333  5.787037e-04
  0.16666667  0.66666667  0.41666667  5.787037e-04
  0.16666667  0.66666667  0.50000000  5.787037e-04
  0.16666667  0.66666667  0.58333333  5.787037e-04
  0.16666667  0.66666667  0.66666667  5.787037e-04
  0.16666667  0.66666667  0.75000000  5.787037e-04
  0.16666667  0.66666667  0.83333333  5.787037e-04
  0.16666667  0.66666667  0.91666667  5.787037e-04
  0.16666667  0.75000000  0.00000000  5.787037e-04
  0.16666667  0.75000000  0.08333333  5.787037e-04
  0.16666667  0.75000000  0.16666667  5.787037e-04
  0.16666667  0.75000000  0.25000000  5.787037e-04
  0.16666667  0.75000000  0.33333333  5.787037e-04
  0.16666667  0.75000000  0.41666667  5.787037e-04
  0.16666667  0.75000000  0.50000000  5.787037e-04
  0.16666667  0.75000000  0.58333333  5.787037e-04
  0.16666667  0.75000000  0.66666667  5.787037e-04
  0.16666667  0.75000000  0.75000000  5.787037e-04
  0.16666667  0.75000000  0.83333333  5.787037e-04
  0.16666667  0.75000000  0.91666667  5.787037e-04
  0.16666667  0.83333333  0.00000000  5.787037e-04
  0.16666667  0.83333333  0.08333333  5.787037e-04
  0.16666667  0.83333333  0.16666667  5.787037e-04
  0.16666667  0.83333333  0.25000000  5.787037e-04
  0.16666667  0.83333333  0.33333333  5.787037e-04
  0.16666667  0.83333333  0.41666667  5.787037e-04
  0.16666667  0.83333333  0.50000000  5.787037e-04
  0.16666667  0.83333333  0.58333333  5.787037e-04
  0.16666667  0.83333333  0.66666667  5.787037e-04
  0.16666667  0.83333333  0.75000000  5.787037e-04
  0.16666667  0.83333333  0.83333333  5.787037e-04
  0.16666667  0.83333333  0.91666667  5.787037e-04
  0.16666667  0.91666667  0.00000000  5.787037e-04
  0.16666667  0.91666667  0.08333333  5.787037e-04
  0.16666667  0.91666667  0.16666667  5.787037e-04
  0.16666667  0.91666667  0.25000000  5.787037e-04
  0.16666667  0.91666667  0.33333333  5.787037e-04
  0.16666667  0.91666667  0.41666667  5.787037e-04
  0.16666667  0.91666667  0.50000000  5.787037e-04
  0.16666667  0.91666667  0.58333333  5.787037e-04
  0.16666667  0.91666667  0.66666667  5.787037e-04
  0.16666667  0.91666667  0.75000000  5.787037e-04
  0.16666667  0.91666667  0.83333333  5.787037e-04
  0.16666667  0.91666667  0.91666667  5.787037e-04
  0.25000000  0.00000000  0.00000000  5.787037e-04
  0.25000000  0.00000000  0.08333333  5.787037e-04
  0.25000000  0.00000000  0.16666667  5.787037e-04
  0.25000000  0.00000000  0.25000000  5.787037e-04
  0.25000000  0.00000000  0.33333333  5.787037e-04
  0.25000000  0.00000000  0.41666667  5.787037e-04
  0.25000000  0.00000000  0.50000000  5.787037e-04
  0.25000000  0.00000000  0.58333333  5.787037e-04
  0.25000000  0.00000000  0.66666667  5.787037e-04
  0.25000000  0.00000000  0.75000000  5.787037e-04
  0.25000000  0.00000000  0.83333333  5.787037e-04
  0.25000000  0.00000000  0.91666667  5.787037e-04
  0.25000000  0.08333333  0.00000000  5.787037e-04
  0.25000000  0.08333333  0.08333333  5.787037e-04
  0.25000000  0.08333333  0.16666667  5.787037e-04
  0.25000000  0.08333333  0.25000000  5.787037e-04
  0.25000000  0.08333333  0.33333333  5.787037e-04
  0.25000000  0.08333333  0.41666667  5.787037e-04
  0.25000000  0.08333333  0.50000000  5.787037e-04
  0.25000000  0.08333333  0.58333333  5.787037e-04
  0.25000000  0.08333333  0.66666667  5.787037e-04
  0.25000000  0.08333333  0.75000000  5.787037e-04
  0.25000000  0.08333333  0.83333333  5.787037e-04
  0.25000000  0.08333333  0.91666667  5.787037e-04
  0.25000000  0.16666667  0.00000000  5.787037e-04
  0.25000000  0.16666667  0.08333333  5.787037e-04
  0.25000000  0.16666667  0.16666667  5.787037e-04
  0.25000000  0.16666667  0.25000000  5.787037e-04
  0.25000000  0.16666667  0.33333333  5.787037e-04
  0.25000000  0.16666667  0.41666667  5.787037e-04
  0.25000000  0.16666667  0.50000000  5.787037e-04
  0.25000000  0.16666667  0.58333333  5.787037e-04
  0.25000000  0.16666667  0.66666667  5.787037e-04
  0.25000000  0.16666667  0.75000000  5.787037e-04
  0.25000000  0.16666667  0.83333333  5.787037e-04
  0.25000000  0.16666667  0.91666667  5.787037e-04
  0.25000000  0.25000000  0.00000000  5.787037e-04
  0.25000000  0.25000000  0.08333333  5.787037e-04
  0.25000000  0.25000000  0.16666667  5.787037e-04
  0.25000000  0.25000000  0.25000000  5.787037e-04
  0.25000000  0.25000000  0.33333333  5.787037e-04
  0.25000000  0.25000000  0.41666667  5.787037e-04
  0.25000000  0.25000000  0.50000000  5.787037e-04
  0.25000000  0.25000000  0.58333333  5.787037e-04
  0.25000000  0.25000000  0.66666667  5.787037e-04
  0.25000000  0.25000000  0.75000000  5.787037e-04
  0.25000000  0.25000000  0.83333333  5.787037e-04
  0.25000000  0.25000000  0.91666667  5.787037e-04
  0.25000000  0.33333333  0.00000000  5.787037e-04
  0.25000000  0.33333333  0.08333333  5.787037e-04
  0.25000000  0.33333333  0.16666667  5.787037e-04
  0.25000000  0.33333333  0.25000000  5.787037e-04
  0.25000000  0.33333333  0.33333333  5.787037e-04
  0.25000000  0.33333333  0.41666667  5.787037e-04
  0.25000000  0.33333333  0.50000000  5.787037e-04
  0.25000000  0.33333333  0.58333333  5.787037e-04
  0.25000000  0.33333333  0.66666667  5.787037e-04
  0.25000000  0.33333333  0.75000000  5.787037e-04
  0.25000000  0.33333333  0.83333333  5.787037e-04
  0.25000000  0.33333333  0.91666667  5.787037e-04
  0.25000000  0.41666667  0.00000000  5.787037e-04
  0.25000000  0.41666667  0.08333333  5.787037e-04
  0.25000000  0.41666667  0.16666667  5.787037e-04
  0.25000000  0.41666667  0.25000000  5.787037e-04
  0.25000000  0.41666667  0.33333333  5.787037e-04
  0.25000000  0.41666667  0.41666667  5.787037e-04
  0.25000000  0.41666667  0.50000000  5.787037e-04
  0.25000000  0.41666667  0.58333333  5.787037e-04
  0.25000000  0.41666667  0.66666667  5.787037e-04
  0.25000000  0.41666667  0.75000000  5.787037e-04
  0.25000000  0.41666667  0.83333333  5.787037e-04
  0.25000000  0.41666667  0.91666667  5.787037e-04
  0.25000000  0.50000000  0.00000000  5.787037e-04
  0.25000000  0.50000000  0.08333333  5.787037e-04
  0.25000000  0.50000000  0.16666667  5.787037e-04
  0.25000000  0.50000000  0.25000000  5.787037e-04
  0.25000000  0.50000000  0.33333333  5.787037e-04
  0.25000000  0.50000000  0.41666667  5.787037e-04
  0.25000000  0.50000000  0.50000000  5.787037e-04
  0.25000000  0.50000000  0.58333333  5.787037e-04
  0.25000000  0.50000000  0.66666667  5.787037e-04
  0.25000000  0.50000000  0.75000000  5.787037e-04
  0.25000000  0.50000000  0.83333333  5.787037e-04
  0.25000000  0.50000000  0.91666667  5.787037e-04
  0.25000000  0.58333333  0.00000000  5.787037e-04
  0.25000000  0.58333333  0.08333333  5.787037e-04
  0.25000000  0.58333333  0.16666667  5.787037e-04
  0.25000000  0.58333333  0.25000000  5.787037e-04
  0.25000000  0.58333333  0.33333333  5.787037e-04
  0.25000000  0.58333333  0.41666667  5.787037e-04
  0.25000000  0.58333333  0.50000000  5.787037e-04
  0.25000000  0.58333333  0.58333333  5.787037e-04
  0.25000000  0.58333333  0.66666667  5.787037e-04
  0.25000000  0.58333333  0.75000000  5.787037e-04
  0.25000000  0.58333333  0.83333333  5.787037e-04
  0.25000000  0.58333333  0.91666667  5.787037e-04
  0.25000000  0.66666667  0.00000000  5.787037e-04
  0.25000000  0.66666667  0.08333333  5.787037e-04
  0.25000000  0.66666667  0.16666667  5.787037e-04
  0.25000000  0.66666667  0.25000000  5.787037e-04
  0.25000000  0.66666667  0.33333333  5.787037e-04
  0.25000000  0.66666667  0.41666667  5.787037e-04
  0.25000000  0.66666667  0.50000000  5.787037e-04
  0.25000000  0.66666667  0.58333333  5.787037e-04
  0.25000000  0.66666667  0.66666667  5.787037e-04
  0.25000000  0.66666667  0.75000000  5.787037e-04
  0.25000000  0.66666667  0.83333333  5.787037e-04
  0.25000000  0.66666667  0.91666667  5.787037e-04
  0.25000000  0.75000000  0.00000000  5.787037e-04
  0.25000000  0.75000000  0.08333333  5.787037e-04
  0.25000000  0.75000000  0.16666667  5.787037e-04
  0.25000000  0.75000000  0.25000000  5.787037e-04
  0.25000000  0.75000000  0.33333333  5.787037e-04
  0.25000000  0.75000000  0.41666667  5.787037e-04
  0.25000000  0.75000000  0.50000000  5.787037e-04
  0.25000000  0.75000000  0.58333333  5.787037e-04
  0.25000000  0.75000000  0.66666667  5.787037e-04
  0.25000000  0.75000000  0.75000000  5.787037e-04
  0.25000000  0.75000000  0.83333333  5.787037e-04
  0.25000000  0.75000000  0.91666667  5.787037e-04
  0.25000000  0.83333333  0.00000000  5.787037e-04
  0.25000000  0.83333333  0.08333333  5.787037e-04
  0.25000000  0.83333333  0.16666667  5.787037e-04
  0.25000000  0.83333333  0.25000000  5.787037e-04
  0.25000000  0.83333333  0.33333333  5.787037e-04
  0.25000000  0.83333333  0.41666667  5.787037e-04
  0.25000000  0.83333333  0.50000000  5.787037e-04
  0.25000000  0.83333333  0.58333333  5.787037e-04
  0.25000000  0.83333333  0.66666667  5.787037e-04
  0.25000000  0.83333333  0.75000000  5.787037e-04
  0.25000000  0.83333333  0.83333333  5.787037e-04
  0.25000000  0.83333333  0.91666667  5.787037e-04
  0.25000000  0.91666667  0.00000000  5.787037e-04
  0.25000000  0.91666667  0.08333333  5.787037e-04
  0.25000000  0.91666667  0.16666667  5.787037e-04
  0.25000000  0.91666667  0.25000000  5.787037e-04