num_bands         =  24
num_wann          =  8

dis_win_min       = -5.
dis_win_max       =  22.5
dis_froz_min      = -2.
dis_froz_max      =  11.5
dis_num_iter      = 300
dis_mix_ratio     =  1.0

num_iter  = 0

conv_noise_amp = 1.0
conv_noise_num = 10

Begin Projections
Ge:s;p
Te:s;p
End Projections

!Begin projections
!random
!End projections

!Cd:s
!Ag:s;px;py;pz;dz2;dxy;dx2-y2;dxz;dyz:z=0,0,1

Begin Kpoint_Path
!G 0.00  0.00  0.50    L 0.0  0.0  0.0
A 0.50 1.0 0.00    Z 0.5 0.5 0.5
Z 0.5  0.5  0.5    U 0.25 1.0 0.25
!G 0.00  0.00  0.00    X 0.50  0.50  0.00
!X 0.50  0.50  0.00    W 0.50  0.75  0.25
!W 0.50  0.75  0.25    L 0.00  0.50  0.00
!L 0.00  0.50  0.00    G 0.00  0.00  0.00
!G 0.00  0.00  0.00    K 0.00  0.50 -0.50
End Kpoint_Path

!!restart=plot
!fermi_energy=10.6547
!bands_plot = .true.
!fermi_surface_plot = .true.
!write_tb = true
write_hr= true
!dist_cutoff=3
!use_ws_distance=.false.
!restart = plot
!fermi_energy = 10.6547
!fermi_surface_plot = true
restart = plot
write_rmn = T
wannier_plot = T
wannier_plot_supercell = 3
!wannier_plot_list = 1-10

begin unit_cell_cart
bohr
  4.554313680024923        0.             6.686168075203066
  -2.277156843956613       3.944151345    6.686168075203066
  -2.277156843956613      -3.944151345    6.686168075203066
end unit_cell_cart

begin atoms_frac
Te       0.523252856   0.523252856   0.523252856
  Ge      -0.002252856  -0.002252856  -0.002252856
end atoms_frac

mp_grid =     12 12 12

begin kpoints

  0.00000000  0.00000000  0.00000000
  0.00000000  0.00000000  0.08333333
  0.00000000  0.00000000  0.16666667
  0.00000000  0.00000000  0.25000000
  0.00000000  0.00000000  0.33333333
  0.00000000  0.00000000  0.41666667
  0.00000000  0.00000000  0.50000000
  0.00000000  0.00000000  0.58333333
  0.00000000  0.00000000  0.66666667
  0.00000000  0.00000000  0.75000000
  0.00000000  0.00000000  0.83333333
  0.00000000  0.00000000  0.91666667
  0.00000000  0.08333333  0.00000000
  0.00000000  0.08333333  0.08333333
  0.00000000  0.08333333  0.16666667
  0.00000000  0.08333333  0.25000000
  0.00000000  0.08333333  0.33333333
  0.00000000  0.08333333  0.41666667
  0.00000000  0.08333333  0.50000000
  0.00000000  0.08333333  0.58333333
  0.00000000  0.08333333  0.66666667
  0.00000000  0.08333333  0.75000000
  0.00000000  0.08333333  0.83333333
  0.00000000  0.08333333  0.91666667
  0.00000000  0.16666667  0.00000000
  0.00000000  0.16666667  0.08333333
  0.00000000  0.16666667  0.16666667
  0.00000000  0.16666667  0.25000000
  0.00000000  0.16666667  0.33333333
  0.00000000  0.16666667  0.41666667
  0.00000000  0.16666667  0.50000000
  0.00000000  0.16666667  0.58333333
  0.00000000  0.16666667  0.66666667
  0.00000000  0.16666667  0.75000000
  0.00000000  0.16666667  0.83333333
  0.00000000  0.16666667  0.91666667
  0.00000000  0.25000000  0.00000000
  0.00000000  0.25000000  0.08333333
  0.00000000  0.25000000  0.16666667
  0.00000000  0.25000000  0.25000000
  0.00000000  0.25000000  0.33333333
  0.00000000  0.25000000  0.41666667
  0.00000000  0.25000000  0.50000000
  0.00000000  0.25000000  0.58333333
  0.00000000  0.25000000  0.66666667
  0.00000000  0.25000000  0.75000000
  0.00000000  0.25000000  0.83333333
  0.00000000  0.25000000  0.91666667
  0.00000000  0.33333333  0.00000000
  0.00000000  0.33333333  0.08333333
  0.00000000  0.33333333  0.16666667
  0.00000000  0.33333333  0.25000000
  0.00000000  0.33333333  0.33333333
  0.00000000  0.33333333  0.41666667
  0.00000000  0.33333333  0.50000000
  0.00000000  0.33333333  0.58333333
  0.00000000  0.33333333  0.66666667
  0.00000000  0.33333333  0.75000000
  0.00000000  0.33333333  0.83333333
  0.00000000  0.33333333  0.91666667
  0.00000000  0.41666667  0.00000000
  0.00000000  0.41666667  0.08333333
  0.00000000  0.41666667  0.16666667
  0.00000000  0.41666667  0.25000000
  0.00000000  0.41666667  0.33333333
  0.00000000  0.41666667  0.41666667
  0.00000000  0.41666667  0.50000000
  0.00000000  0.41666667  0.58333333
  0.00000000  0.41666667  0.66666667
  0.00000000  0.41666667  0.75000000
  0.00000000  0.41666667  0.83333333
  0.00000000  0.41666667  0.91666667
  0.00000000  0.50000000  0.00000000
  0.00000000  0.50000000  0.08333333
  0.00000000  0.50000000  0.16666667
  0.00000000  0.50000000  0.25000000
  0.00000000  0.50000000  0.33333333
  0.00000000  0.50000000  0.41666667
  0.00000000  0.50000000  0.50000000
  0.00000000  0.50000000  0.58333333
  0.00000000  0.50000000  0.66666667
  0.00000000  0.50000000  0.75000000
  0.00000000  0.50000000  0.83333333
  0.00000000  0.50000000  0.91666667
  0.00000000  0.58333333  0.00000000
  0.00000000  0.58333333  0.08333333
  0.00000000  0.58333333  0.16666667
  0.00000000  0.58333333  0.25000000
  0.00000000  0.58333333  0.33333333
  0.00000000  0.58333333  0.41666667
  0.00000000  0.58333333  0.50000000
  0.00000000  0.58333333  0.58333333
  0.00000000  0.58333333  0.66666667
  0.00000000  0.58333333  0.75000000
  0.00000000  0.58333333  0.83333333
  0.00000000  0.58333333  0.91666667
  0.00000000  0.66666667  0.00000000
  0.00000000  0.66666667  0.08333333
  0.00000000  0.66666667  0.16666667
  0.00000000  0.66666667  0.25000000
  0.00000000  0.66666667  0.33333333
  0.00000000  0.66666667  0.41666667
  0.00000000  0.66666667  0.50000000
  0.00000000  0.66666667  0.58333333
  0.00000000  0.66666667  0.66666667
  0.00000000  0.66666667  0.75000000
  0.00000000  0.66666667  0.83333333
  0.00000000  0.66666667  0.91666667
  0.00000000  0.75000000  0.00000000
  0.00000000  0.75000000  0.08333333
  0.00000000  0.75000000  0.16666667
  0.00000000  0.75000000  0.25000000
  0.00000000  0.75000000  0.33333333
  0.00000000  0.75000000  0.41666667
  0.00000000  0.75000000  0.50000000
  0.00000000  0.75000000  0.58333333
  0.00000000  0.75000000  0.66666667
  0.00000000  0.75000000  0.75000000
  0.00000000  0.75000000  0.83333333
  0.00000000  0.75000000  0.91666667
  0.00000000  0.83333333  0.00000000
  0.00000000  0.83333333  0.08333333
  0.00000000  0.83333333  0.16666667
  0.00000000  0.83333333  0.25000000
  0.00000000  0.83333333  0.33333333
  0.00000000  0.83333333  0.41666667
  0.00000000  0.83333333  0.50000000
  0.00000000  0.83333333  0.58333333
  0.00000000  0.83333333  0.66666667
  0.00000000  0.83333333  0.75000000
  0.00000000  0.83333333  0.83333333
  0.00000000  0.83333333  0.91666667
  0.00000000  0.91666667  0.00000000
  0.00000000  0.91666667  0.08333333
  0.00000000  0.91666667  0.16666667
  0.00000000  0.91666667  0.25000000
  0.00000000  0.91666667  0.33333333
  0.00000000  0.91666667  0.41666667
  0.00000000  0.91666667  0.50000000
  0.00000000  0.91666667  0.58333333
  0.00000000  0.91666667  0.66666667
  0.00000000  0.91666667  0.75000000
  0.00000000  0.91666667  0.83333333
  0.00000000  0.91666667  0.91666667
  0.08333333  0.00000000  0.00000000
  0.08333333  0.00000000  0.08333333
  0.08333333  0.00000000  0.16666667
  0.08333333  0.00000000  0.25000000
  0.08333333  0.00000000  0.33333333
  0.08333333  0.00000000  0.41666667
  0.08333333  0.00000000  0.50000000
  0.08333333  0.00000000  0.58333333
  0.08333333  0.00000000  0.66666667
  0.08333333  0.00000000  0.75000000
  0.08333333  0.00000000  0.83333333
  0.08333333  0.00000000  0.91666667
  0.08333333  0.08333333  0.00000000
  0.08333333  0.08333333  0.08333333
  0.08333333  0.08333333  0.16666667
  0.08333333  0.08333333  0.25000000
  0.08333333  0.08333333  0.33333333
  0.08333333  0.08333333  0.41666667
  0.08333333  0.08333333  0.50000000
  0.08333333  0.08333333  0.58333333
  0.08333333  0.08333333  0.66666667
  0.08333333  0.08333333  0.75000000
  0.08333333  0.08333333  0.83333333
  0.08333333  0.08333333  0.91666667
  0.08333333  0.16666667  0.00000000
  0.08333333  0.16666667  0.08333333
  0.08333333  0.16666667  0.16666667
  0.08333333  0.16666667  0.25000000
  0.08333333  0.16666667  0.33333333
  0.08333333  0.16666667  0.41666667
  0.08333333  0.16666667  0.50000000
  0.08333333  0.16666667  0.58333333
  0.08333333  0.16666667  0.66666667
  0.08333333  0.16666667  0.75000000
  0.08333333  0.16666667  0.83333333
  0.08333333  0.16666667  0.91666667
  0.08333333  0.25000000  0.00000000
  0.08333333  0.25000000  0.08333333
  0.08333333  0.25000000  0.16666667
  0.08333333  0.25000000  0.25000000
  0.08333333  0.25000000  0.33333333
  0.08333333  0.25000000  0.41666667
  0.08333333  0.25000000  0.50000000
  0.08333333  0.25000000  0.58333333
  0.08333333  0.25000000  0.66666667
  0.08333333  0.25000000  0.75000000
  0.08333333  0.25000000  0.83333333
  0.08333333  0.25000000  0.91666667
  0.08333333  0.33333333  0.00000000
  0.08333333  0.33333333  0.08333333
  0.08333333  0.33333333  0.16666667
  0.08333333  0.33333333  0.25000000
  0.08333333  0.33333333  0.33333333
  0.08333333  0.33333333  0.41666667
  0.08333333  0.33333333  0.50000000
  0.08333333  0.33333333  0.58333333
  0.08333333  0.33333333  0.66666667
  0.08333333  0.33333333  0.75000000
  0.08333333  0.33333333  0.83333333
  0.08333333  0.33333333  0.91666667
  0.08333333  0.41666667  0.00000000
  0.08333333  0.41666667  0.08333333
  0.08333333  0.41666667  0.16666667
  0.08333333  0.41666667  0.25000000
  0.08333333  0.41666667  0.33333333
  0.08333333  0.41666667  0.41666667
  0.08333333  0.41666667  0.50000000
  0.08333333  0.41666667  0.58333333
  0.08333333  0.41666667  0.66666667
  0.08333333  0.41666667  0.75000000
  0.08333333  0.41666667  0.83333333
  0.08333333  0.41666667  0.91666667
  0.08333333  0.50000000  0.00000000
  0.08333333  0.50000000  0.08333333
  0.08333333  0.50000000  0.16666667
  0.08333333  0.50000000  0.25000000
  0.08333333  0.50000000  0.33333333
  0.08333333  0.50000000  0.41666667
  0.08333333  0.50000000  0.50000000
  0.08333333  0.50000000  0.58333333
  0.08333333  0.50000000  0.66666667
  0.08333333  0.50000000  0.75000000
  0.08333333  0.50000000  0.83333333
  0.08333333  0.50000000  0.91666667
  0.08333333  0.58333333  0.00000000
  0.08333333  0.58333333  0.08333333
  0.08333333  0.58333333  0.16666667
  0.08333333  0.58333333  0.25000000
  0.08333333  0.58333333  0.33333333
  0.08333333  0.58333333  0.41666667
  0.08333333  0.58333333  0.50000000
  0.08333333  0.58333333  0.58333333
  0.08333333  0.58333333  0.66666667
  0.08333333  0.58333333  0.75000000
  0.08333333  0.58333333  0.83333333
  0.08333333  0.58333333  0.91666667
  0.08333333  0.66666667  0.00000000
  0.08333333  0.66666667  0.08333333
  0.08333333  0.66666667  0.16666667
  0.08333333  0.66666667  0.25000000
  0.08333333  0.66666667  0.33333333
  0.08333333  0.66666667  0.41666667
  0.08333333  0.66666667  0.50000000
  0.08333333  0.66666667  0.58333333
  0.08333333  0.66666667  0.66666667
  0.08333333  0.66666667  0.75000000
  0.08333333  0.66666667  0.83333333
  0.08333333  0.66666667  0.91666667
  0.08333333  0.75000000  0.00000000
  0.08333333  0.75000000  0.08333333
  0.08333333  0.75000000  0.16666667
  0.08333333  0.75000000  0.25000000
  0.08333333  0.75000000  0.33333333
  0.08333333  0.75000000  0.41666667
  0.08333333  0.75000000  0.50000000
  0.08333333  0.75000000  0.58333333
  0.08333333  0.75000000  0.66666667
  0.08333333  0.75000000  0.75000000
  0.08333333  0.75000000  0.83333333
  0.08333333  0.75000000  0.91666667
  0.08333333  0.83333333  0.00000000
  0.08333333  0.83333333  0.08333333
  0.08333333  0.83333333  0.16666667
  0.08333333  0.83333333  0.25000000
  0.08333333  0.83333333  0.33333333
  0.08333333  0.83333333  0.41666667
  0.08333333  0.83333333  0.50000000
  0.08333333  0.83333333  0.58333333
  0.08333333  0.83333333  0.66666667
  0.08333333  0.83333333  0.75000000
  0.08333333  0.83333333  0.83333333
  0.08333333  0.83333333  0.91666667
  0.08333333  0.91666667  0.00000000
  0.08333333  0.91666667  0.08333333
  0.08333333  0.91666667  0.16666667
  0.08333333  0.91666667  0.25000000
  0.08333333  0.91666667  0.33333333
  0.08333333  0.91666667  0.41666667
  0.08333333  0.91666667  0.50000000
  0.08333333  0.91666667  0.58333333
  0.08333333  0.91666667  0.66666667
  0.08333333  0.91666667  0.75000000
  0.08333333  0.91666667  0.83333333
  0.08333333  0.91666667  0.91666667
  0.16666667  0.00000000  0.00000000
  0.16666667  0.00000000  0.08333333
  0.16666667  0.00000000  0.16666667
  0.16666667  0.00000000  0.25000000
  0.16666667  0.00000000  0.33333333
  0.16666667  0.00000000  0.41666667
  0.16666667  0.00000000  0.50000000
  0.16666667  0.00000000  0.58333333
  0.16666667  0.00000000  0.66666667
  0.16666667  0.00000000  0.75000000
  0.16666667  0.00000000  0.83333333
  0.16666667  0.00000000  0.91666667
  0.16666667  0.08333333  0.00000000
  0.16666667  0.08333333  0.08333333
  0.16666667  0.08333333  0.16666667
  0.16666667  0.08333333  0.25000000
  0.16666667  0.08333333  0.33333333
  0.16666667  0.08333333  0.41666667
  0.16666667  0.08333333  0.50000000
  0.16666667  0.08333333  0.58333333
  0.16666667  0.08333333  0.66666667
  0.16666667  0.08333333  0.75000000
  0.16666667  0.08333333  0.83333333
  0.16666667  0.08333333  0.91666667
  0.16666667  0.16666667  0.00000000
  0.16666667  0.16666667  0.08333333
  0.16666667  0.16666667  0.16666667
  0.16666667  0.16666667  0.25000000
  0.16666667  0.16666667  0.33333333
  0.16666667  0.16666667  0.41666667
  0.16666667  0.16666667  0.50000000
  0.16666667  0.16666667  0.58333333
  0.16666667  0.16666667  0.66666667
  0.16666667  0.16666667  0.75000000
  0.16666667  0.16666667  0.83333333
  0.16666667  0.16666667  0.91666667
  0.16666667  0.25000000  0.00000000
  0.16666667  0.25000000  0.08333333
  0.16666667  0.25000000  0.16666667
  0.16666667  0.25000000  0.25000000
  0.16666667  0.25000000  0.33333333
  0.16666667  0.25000000  0.41666667
  0.16666667  0.25000000  0.50000000
  0.16666667  0.25000000  0.58333333
  0.16666667  0.25000000  0.66666667
  0.16666667  0.25000000  0.75000000
  0.16666667  0.25000000  0.83333333
  0.16666667  0.25000000  0.91666667
  0.16666667  0.33333333  0.00000000
  0.16666667  0.33333333  0.08333333
  0.16666667  0.33333333  0.16666667
  0.16666667  0.33333333  0.25000000
  0.16666667  0.33333333  0.33333333
  0.16666667  0.33333333  0.41666667
  0.16666667  0.33333333  0.50000000
  0.16666667  0.33333333  0.58333333
  0.16666667  0.33333333  0.66666667
  0.16666667  0.33333333  0.75000000
  0.16666667  0.33333333  0.83333333
  0.16666667  0.33333333  0.91666667
  0.16666667  0.41666667  0.00000000
  0.16666667  0.41666667  0.08333333
  0.16666667  0.41666667  0.16666667
  0.16666667  0.41666667  0.25000000
  0.16666667  0.41666667  0.33333333
  0.16666667  0.41666667  0.41666667
  0.16666667  0.41666667  0.50000000
  0.16666667  0.41666667  0.58333333
  0.16666667  0.41666667  0.66666667
  0.16666667  0.41666667  0.75000000
  0.16666667  0.41666667  0.83333333
  0.16666667  0.41666667  0.91666667
  0.16666667  0.50000000  0.00000000
  0.16666667  0.50000000  0.08333333
  0.16666667  0.50000000  0.16666667
  0.16666667  0.50000000  0.25000000
  0.16666667  0.50000000  0.33333333
  0.16666667  0.50000000  0.41666667
  0.16666667  0.50000000  0.50000000
  0.16666667  0.50000000  0.58333333
  0.16666667  0.50000000  0.66666667
  0.16666667  0.50000000  0.75000000
  0.16666667  0.50000000  0.83333333
  0.16666667  0.50000000  0.91666667
  0.16666667  0.58333333  0.00000000
  0.16666667  0.58333333  0.08333333
  0.16666667  0.58333333  0.16666667
  0.16666667  0.58333333  0.25000000
  0.16666667  0.58333333  0.33333333
  0.16666667  0.58333333  0.41666667
  0.16666667  0.58333333  0.50000000
  0.16666667  0.58333333  0.58333333
  0.16666667  0.58333333  0.66666667
  0.16666667  0.58333333  0.75000000
  0.16666667  0.58333333  0.83333333
  0.16666667  0.58333333  0.91666667
  0.16666667  0.66666667  0.00000000
  0.16666667  0.66666667  0.08333333
  0.16666667  0.66666667  0.16666667
  0.16666667  0.66666667  0.25000000
  0.16666667  0.66666667  0.33333333
  0.16666667  0.66666667  0.41666667
  0.16666667  0.66666667  0.50000000
  0.16666667  0.66666667  0.58333333
  0.16666667  0.66666667  0.66666667
  0.16666667  0.66666667  0.75000000
  0.16666667  0.66666667  0.83333333
  0.16666667  0.66666667  0.91666667
  0.16666667  0.75000000  0.00000000
  0.16666667  0.75000000  0.08333333
  0.16666667  0.75000000  0.16666667
  0.16666667  0.75000000  0.25000000
  0.16666667  0.75000000  0.33333333
  0.16666667  0.75000000  0.41666667
  0.16666667  0.75000000  0.50000000
  0.16666667  0.75000000  0.58333333
  0.16666667  0.75000000  0.66666667
  0.16666667  0.75000000  0.75000000
  0.16666667  0.75000000  0.83333333
  0.16666667  0.75000000  0.91666667
  0.16666667  0.83333333  0.00000000
  0.16666667  0.83333333  0.08333333
  0.16666667  0.83333333  0.16666667
  0.16666667  0.83333333  0.25000000
  0.16666667  0.83333333  0.33333333
  0.16666667  0.83333333  0.41666667
  0.16666667  0.83333333  0.50000000
  0.16666667  0.83333333  0.58333333
  0.16666667  0.83333333  0.66666667
  0.16666667  0.83333333  0.75000000
  0.16666667  0.83333333  0.83333333
  0.16666667  0.83333333  0.91666667
  0.16666667  0.91666667  0.00000000
  0.16666667  0.91666667  0.08333333
  0.16666667  0.91666667  0.16666667
  0.16666667  0.91666667  0.25000000
  0.16666667  0.91666667  0.33333333
  0.16666667  0.91666667  0.41666667
  0.16666667  0.91666667  0.50000000
  0.16666667  0.91666667  0.58333333
  0.16666667  0.91666667  0.66666667
  0.16666667  0.91666667  0.75000000
  0.16666667  0.91666667  0.83333333
  0.16666667  0.91666667  0.91666667
  0.25000000  0.00000000  0.00000000
  0.25000000  0.00000000  0.08333333
  0.25000000  0.00000000  0.16666667
  0.25000000  0.00000000  0.25000000
  0.25000000  0.00000000  0.33333333
  0.25000000  0.00000000  0.41666667
  0.25000000  0.00000000  0.50000000
  0.25000000  0.00000000  0.58333333
  0.25000000  0.00000000  0.66666667
  0.25000000  0.00000000  0.75000000
  0.25000000  0.00000000  0.83333333
  0.25000000  0.00000000  0.91666667
  0.25000000  0.08333333  0.00000000
  0.25000000  0.08333333  0.08333333
  0.25000000  0.08333333  0.16666667
  0.25000000  0.08333333  0.25000000
  0.25000000  0.08333333  0.33333333
  0.25000000  0.08333333  0.41666667
  0.25000000  0.08333333  0.50000000
  0.25000000  0.08333333  0.58333333
  0.25000000  0.08333333  0.66666667
  0.25000000  0.08333333  0.75000000
  0.25000000  0.08333333  0.83333333
  0.25000000  0.08333333  0.91666667
  0.25000000  0.16666667  0.00000000
  0.25000000  0.16666667  0.08333333
  0.25000000  0.16666667  0.16666667
  0.25000000  0.16666667  0.25000000
  0.25000000  0.16666667  0.33333333
  0.25000000  0.16666667  0.41666667
  0.25000000  0.16666667  0.50000000
  0.25000000  0.16666667  0.58333333
  0.25000000  0.16666667  0.66666667
  0.25000000  0.16666667  0.75000000
  0.25000000  0.16666667  0.83333333
  0.25000000  0.16666667  0.91666667
  0.25000000  0.25000000  0.00000000
  0.25000000  0.25000000  0.08333333
  0.25000000  0.25000000  0.16666667
  0.25000000  0.25000000  0.25000000
  0.25000000  0.25000000  0.33333333
  0.25000000  0.25000000  0.41666667
  0.25000000  0.25000000  0.50000000
  0.25000000  0.25000000  0.58333333
  0.25000000  0.25000000  0.66666667
  0.25000000  0.25000000  0.75000000
  0.25000000  0.25000000  0.83333333
  0.25000000  0.25000000  0.91666667
  0.25000000  0.33333333  0.00000000
  0.25000000  0.33333333  0.08333333
  0.25000000  0.33333333  0.16666667
  0.25000000  0.33333333  0.25000000
  0.25000000  0.33333333  0.33333333
  0.25000000  0.33333333  0.41666667
  0.25000000  0.33333333  0.50000000
  0.25000000  0.33333333  0.58333333
  0.25000000  0.33333333  0.66666667
  0.25000000  0.33333333  0.75000000
  0.25000000  0.33333333  0.83333333
  0.25000000  0.33333333  0.91666667
  0.25000000  0.41666667  0.00000000
  0.25000000  0.41666667  0.08333333
  0.25000000  0.41666667  0.16666667
  0.25000000  0.41666667  0.25000000
  0.25000000  0.41666667  0.33333333
  0.25000000  0.41666667  0.41666667
  0.25000000  0.41666667  0.50000000
  0.25000000  0.41666667  0.58333333
  0.25000000  0.41666667  0.66666667
  0.25000000  0.41666667  0.75000000
  0.25000000  0.41666667  0.83333333
  0.25000000  0.41666667  0.91666667
  0.25000000  0.50000000  0.00000000
  0.25000000  0.50000000  0.08333333
  0.25000000  0.50000000  0.16666667
  0.25000000  0.50000000  0.25000000
  0.25000000  0.50000000  0.33333333
  0.25000000  0.50000000  0.41666667
  0.25000000  0.50000000  0.50000000
  0.25000000  0.50000000  0.58333333
  0.25000000  0.50000000  0.66666667
  0.25000000  0.50000000  0.75000000
  0.25000000  0.50000000  0.83333333
  0.25000000  0.50000000  0.91666667
  0.25000000  0.58333333  0.00000000
  0.25000000  0.58333333  0.08333333
  0.25000000  0.58333333  0.16666667
  0.25000000  0.58333333  0.25000000
  0.25000000  0.58333333  0.33333333
  0.25000000  0.58333333  0.41666667
  0.25000000  0.58333333  0.50000000
  0.25000000  0.58333333  0.58333333
  0.25000000  0.58333333  0.66666667
  0.25000000  0.58333333  0.75000000
  0.25000000  0.58333333  0.83333333
  0.25000000  0.58333333  0.91666667
  0.25000000  0.66666667  0.00000000
  0.25000000  0.66666667  0.08333333
  0.25000000  0.66666667  0.16666667
  0.25000000  0.66666667  0.25000000
  0.25000000  0.66666667  0.33333333
  0.25000000  0.66666667  0.41666667
  0.25000000  0.66666667  0.50000000
  0.25000000  0.66666667  0.58333333
  0.25000000  0.66666667  0.66666667
  0.25000000  0.66666667  0.75000000
  0.25000000  0.66666667  0.83333333
  0.25000000  0.66666667  0.91666667
  0.25000000  0.75000000  0.00000000
  0.25000000  0.75000000  0.08333333
  0.25000000  0.75000000  0.16666667
  0.25000000  0.75000000  0.25000000
  0.25000000  0.75000000  0.33333333
  0.25000000  0.75000000  0.41666667
  0.25000000  0.75000000  0.50000000
  0.25000000  0.75000000  0.58333333
  0.25000000  0.75000000  0.66666667
  0.25000000  0.75000000  0.75000000
  0.25000000  0.75000000  0.83333333
  0.25000000  0.75000000  0.91666667
  0.25000000  0.83333333  0.00000000
  0.25000000  0.83333333  0.08333333
  0.25000000  0.83333333  0.16666667
  0.25000000  0.83333333  0.25000000
  0.25000000  0.83333333  0.33333333
  0.25000000  0.83333333  0.41666667
  0.25000000  0.83333333  0.50000000
  0.25000000  0.83333333  0.58333333
  0.25000000  0.83333333  0.66666667
  0.25000000  0.83333333  0.75000000
  0.25000000  0.83333333  0.83333333
  0.25000000  0.83333333  0.91666667
  0.25000000  0.91666667  0.00000000
  0.25000000  0.91666667  0.08333333
  0.25000000  0.91666667  0.16666667
  0.25000000  0.91666667  0.25000000
  0.25000000  0.91666667  0.33333333
  0.25000000  0.91666667  0.41666667
  0.25000000  0.91666667  0.50000000
  0.25000000  0.91666667  0.58333333
  0.25000000  0.91666667  0.66666667
  0.25000000  0.91666667  0.75000000
  0.25000000  0.91666667  0.83333333
  0.25000000  0.91666667  0.91666667
  0.33333333  0.00000000  0.00000000
  0.33333333  0.00000000  0.08333333
  0.33333333  0.00000000  0.16666667
  0.33333333  0.00000000  0.25000000
  0.33333333  0.00000000  0.33333333
  0.33333333  0.00000000  0.41666667
  0.33333333  0.00000000  0.50000000
  0.33333333  0.00000000  0.58333333
  0.33333333  0.00000000  0.66666667
  0.33333333  0.00000000  0.75000000
  0.33333333  0.00000000  0.83333333
  0.33333333  0.00000000  0.91666667
  0.33333333  0.08333333  0.00000000
  0.33333333  0.08333333  0.08333333
  0.33333333  0.08333333  0.16666667
  0.33333333  0.08333333  0.25000000
  0.33333333  0.08333333  0.33333333
  0.33333333  0.08333333  0.41666667
  0.33333333  0.08333333  0.50000000
  0.33333333  0.08333333  0.58333333
  0.33333333  0.08333333  0.66666667
  0.33333333  0.08333333  0.75000000
  0.33333333  0.08333333  0.83333333
  0.33333333  0.08333333  0.91666667
  0.33333333  0.16666667  0.00000000
  0.33333333  0.16666667  0.08333333
  0.33333333  0.16666667  0.16666667
  0.33333333  0.16666667  0.25000000
  0.33333333  0.16666667  0.33333333
  0.33333333  0.16666667  0.41666667
  0.33333333  0.16666667  0.50000000
  0.33333333  0.16666667  0.58333333
  0.33333333  0.16666667  0.66666667
  0.33333333  0.16666667  0.75000000
  0.33333333  0.16666667  0.83333333
  0.33333333  0.16666667  0.91666667
  0.33333333  0.25000000  0.00000000
  0.33333333  0.25000000  0.08333333
  0.33333333  0.25000000  0.16666667
  0.33333333  0.25000000  0.25000000
  0.33333333  0.25000000  0.33333333
  0.33333333  0.25000000  0.41666667
  0.33333333  0.25000000  0.50000000
  0.33333333  0.25000000  0.58333333
  0.33333333  0.25000000  0.66666667
  0.33333333  0.25000000  0.75000000
  0.33333333  0.25000000  0.83333333
  0.33333333  0.25000000  0.91666667
  0.33333333  0.33333333  0.00000000
  0.33333333  0.33333333  0.08333333
  0.33333333  0.33333333  0.16666667
  0.33333333  0.33333333  0.25000000
  0.33333333  0.33333333  0.33333333
  0.33333333  0.33333333  0.41666667
  0.33333333  0.33333333  0.50000000
  0.33333333  0.33333333  0.58333333
  0.33333333  0.33333333  0.66666667
  0.33333333  0.33333333  0.75000000
  0.33333333  0.33333333  0.83333333
  0.33333333  0.33333333  0.91666667
  0.33333333  0.41666667  0.00000000
  0.33333333  0.41666667  0.08333333
  0.33333333  0.41666667  0.16666667
  0.33333333  0.41666667  0.25000000
  0.33333333  0.41666667  0.33333333
  0.33333333  0.41666667  0.41666667
  0.33333333  0.41666667  0.50000000
  0.33333333  0.41666667  0.58333333
  0.33333333  0.41666667  0.66666667
  0.33333333  0.41666667  0.75000000
  0.33333333  0.41666667  0.83333333
  0.33333333  0.41666667  0.91666667
  0.33333333  0.50000000  0.00000000
  0.33333333  0.50000000  0.08333333
  0.33333333  0.50000000  0.16666667
  0.33333333  0.50000000  0.25000000
  0.33333333  0.50000000  0.33333333
  0.33333333  0.50000000  0.41666667
  0.33333333  0.50000000  0.50000000
  0.33333333  0.50000000  0.58333333
  0.33333333  0.50000000  0.66666667
  0.33333333  0.50000000  0.75000000
  0.33333333  0.50000000  0.83333333
  0.33333333  0.50000000  0.91666667
  0.33333333  0.58333333  0.00000000
  0.33333333  0.58333333  0.08333333
  0.33333333  0.58333333  0.16666667
  0.33333333  0.58333333  0.25000000
  0.33333333  0.58333333  0.33333333
  0.33333333  0.58333333  0.41666667
  0.33333333  0.58333333  0.50000000
  0.33333333  0.58333333  0.58333333
  0.33333333  0.58333333  0.66666667
  0.33333333  0.58333333  0.75000000
  0.33333333  0.58333333  0.83333333
  0.33333333  0.58333333  0.91666667
  0.33333333  0.66666667  0.00000000
  0.33333333  0.66666667  0.08333333
  0.33333333  0.66666667  0.16666667
  0.33333333  0.66666667  0.25000000
  0.33333333  0.66666667  0.33333333
  0.33333333  0.66666667  0.41666667
  0.33333333  0.66666667  0.50000000
  0.33333333  0.66666667  0.58333333
  0.33333333  0.66666667  0.66666667
  0.33333333  0.66666667  0.75000000
  0.33333333  0.66666667  0.83333333
  0.33333333  0.66666667  0.91666667
  0.33333333  0.75000000  0.00000000
  0.33333333  0.75000000  0.08333333
  0.33333333  0.75000000  0.16666667
  0.33333333  0.75000000  0.25000000
  0.33333333  0.75000000  0.33333333
  0.33333333  0.75000000  0.41666667
  0.33333333  0.75000000  0.50000000
  0.33333333  0.75000000  0.58333333
  0.33333333  0.75000000  0.66666667
  0.33333333  0.75000000  0.75000000
  0.33333333  0.75000000  0.83333333
  0.33333333  0.75000000  0.91666667
  0.33333333  0.83333333  0.00000000
  0.33333333  0.83333333  0.08333333
  0.33333333  0.83333333  0.16666667
  0.33333333  0.83333333  0.25000000
  0.33333333  0.83333333  0.33333333
  0.33333333  0.83333333  0.41666667
  0.33333333  0.83333333  0.50000000
  0.33333333  0.83333333  0.58333333
  0.33333333  0.83333333  0.66666667
  0.33333333  0.83333333  0.75000000
  0.33333333  0.83333333  0.83333333
  0.33333333  0.83333333  0.91666667
  0.33333333  0.91666667  0.00000000
  0.33333333  0.91666667  0.08333333
  0.33333333  0.91666667  0.16666667
  0.33333333  0.91666667  0.25000000
  0.33333333  0.91666667  0.33333333
  0.33333333  0.91666667  0.41666667
  0.33333333  0.91666667  0.50000000
  0.33333333  0.91666667  0.58333333
  0.33333333  0.91666667  0.66666667
  0.33333333  0.91666667  0.75000000
  0.33333333  0.91666667  0.83333333
  0.33333333  0.91666667  0.91666667
  0.41666667  0.00000000  0.00000000
  0.41666667  0.00000000  0.08333333
  0.41666667  0.00000000  0.16666667
  0.41666667  0.00000000  0.25000000
  0.41666667  0.00000000  0.33333333
  0.41666667  0.00000000  0.41666667
  0.41666667  0.00000000  0.50000000
  0.41666667  0.00000000  0.58333333
  0.41666667  0.00000000  0.66666667
  0.41666667  0.00000000  0.75000000
  0.41666667  0.00000000  0.83333333
  0.41666667  0.00000000  0.91666667
  0.41666667  0.08333333  0.00000000
  0.41666667  0.08333333  0.08333333
  0.41666667  0.08333333  0.16666667
  0.41666667  0.08333333  0.25000000
  0.41666667  0.08333333  0.33333333
  0.41666667  0.08333333  0.41666667
  0.41666667  0.08333333  0.50000000
  0.41666667  0.08333333  0.58333333
  0.41666667  0.08333333  0.66666667
  0.41666667  0.08333333  0.75000000
  0.41666667  0.08333333  0.83333333
  0.41666667  0.08333333  0.91666667
  0.41666667  0.16666667  0.00000000
  0.41666667  0.16666667  0.08333333
  0.41666667  0.16666667  0.16666667
  0.41666667  0.16666667  0.25000000
  0.41666667  0.16666667  0.33333333
  0.41666667  0.16666667  0.41666667
  0.41666667  0.16666667  0.50000000
  0.41666667  0.16666667  0.58333333
  0.41666667  0.16666667  0.66666667
  0.41666667  0.16666667  0.75000000
  0.41666667  0.16666667  0.83333333
  0.41666667  0.16666667  0.91666667
  0.41666667  0.25000000  0.00000000
  0.41666667  0.25000000  0.08333333
  0.41666667  0.25000000  0.16666667
  0.41666667  0.25000000  0.25000000
  0.41666667  0.25000000  0.33333333
  0.41666667  0.25000000  0.41666667
  0.41666667  0.25000000  0.50000000
  0.41666667  0.25000000  0.58333333
  0.41666667  0.25000000  0.66666667
  0.41666667  0.25000000  0.75000000
  0.41666667  0.25000000  0.83333333
  0.41666667  0.25000000  0.91666667
  0.41666667  0.33333333  0.00000000
  0.41666667  0.33333333  0.08333333