&control
   prefix = 'pwo'
   verbosity = 'high'
   calculation = 'nscf'
   outdir = './'
   pseudo_dir = './'
   disk_io = 'low'
/

&system
   ecutwfc = 28
   starting_magnetization(1) = -1.0e-5
   occupations = 'smearing'
   nbnd = 24
   nosym = true
   nspin = 2
   ntyp = 2
   smearing = 'cold'
   degauss = 0.01
   ibrav = 0
   ecutrho = 250
   nat = 2
/

&electrons
   mixing_beta = 0.3
   conv_thr = 1.0e-8
   mixing_mode = 'plain'
   diagonalization = 'david'
   diago_full_acc = true
/

&ions
   ion_dynamics = 'bfgs'
/

&cell
   cell_dynamics = 'bfgs'
   press = 0
/

ATOMIC_SPECIES
Te 127.6   Te.pbesol-dn-kjpaw_psl.0.2.2.UPF
Ge 72.64   Ge.pbesol-dn-kjpaw_psl.0.2.2.UPF

CELL_PARAMETERS (bohr)
 4.5543137 0.0 6.686168
 -2.2771568 3.9441514 6.686168
 -2.2771568 -3.9441514 6.686168

ATOMIC_POSITIONS (crystal)
Te 0.52325284 0.52325284 0.52325284
Ge -0.002252856 -0.002252856 -0.002252856

K_POINTS (crystal)
1728
 0.0 0.0 0.0 0.0005787037
 0.0 0.0 0.08333333 0.0005787037
 0.0 0.0 0.16666667 0.0005787037
 0.0 0.0 0.25 0.0005787037
 0.0 0.0 0.33333334 0.0005787037
 0.0 0.0 0.41666666 0.0005787037
 0.0 0.0 0.5 0.0005787037
 0.0 0.0 0.5833333 0.0005787037
 0.0 0.0 0.6666667 0.0005787037
 0.0 0.0 0.75 0.0005787037
 0.0 0.0 0.8333333 0.0005787037
 0.0 0.0 0.9166667 0.0005787037
 0.0 0.08333333 0.0 0.0005787037
 0.0 0.08333333 0.08333333 0.0005787037
 0.0 0.08333333 0.16666667 0.0005787037
 0.0 0.08333333 0.25 0.0005787037
 0.0 0.08333333 0.33333334 0.0005787037
 0.0 0.08333333 0.41666666 0.0005787037
 0.0 0.08333333 0.5 0.0005787037
 0.0 0.08333333 0.5833333 0.0005787037
 0.0 0.08333333 0.6666667 0.0005787037
 0.0 0.08333333 0.75 0.0005787037
 0.0 0.08333333 0.8333333 0.0005787037
 0.0 0.08333333 0.9166667 0.0005787037
 0.0 0.16666667 0.0 0.0005787037
 0.0 0.16666667 0.08333333 0.0005787037
 0.0 0.16666667 0.16666667 0.0005787037
 0.0 0.16666667 0.25 0.0005787037
 0.0 0.16666667 0.33333334 0.0005787037
 0.0 0.16666667 0.41666666 0.0005787037
 0.0 0.16666667 0.5 0.0005787037
 0.0 0.16666667 0.5833333 0.0005787037
 0.0 0.16666667 0.6666667 0.0005787037
 0.0 0.16666667 0.75 0.0005787037
 0.0 0.16666667 0.8333333 0.0005787037
 0.0 0.16666667 0.9166667 0.0005787037
 0.0 0.25 0.0 0.0005787037
 0.0 0.25 0.08333333 0.0005787037
 0.0 0.25 0.16666667 0.0005787037
 0.0 0.25 0.25 0.0005787037
 0.0 0.25 0.33333334 0.0005787037
 0.0 0.25 0.41666666 0.0005787037
 0.0 0.25 0.5 0.0005787037
 0.0 0.25 0.5833333 0.0005787037
 0.0 0.25 0.6666667 0.0005787037
 0.0 0.25 0.75 0.0005787037
 0.0 0.25 0.8333333 0.0005787037
 0.0 0.25 0.9166667 0.0005787037
 0.0 0.33333334 0.0 0.0005787037
 0.0 0.33333334 0.08333333 0.0005787037
 0.0 0.33333334 0.16666667 0.0005787037
 0.0 0.33333334 0.25 0.0005787037
 0.0 0.33333334 0.33333334 0.0005787037
 0.0 0.33333334 0.41666666 0.0005787037
 0.0 0.33333334 0.5 0.0005787037
 0.0 0.33333334 0.5833333 0.0005787037
 0.0 0.33333334 0.6666667 0.0005787037
 0.0 0.33333334 0.75 0.0005787037
 0.0 0.33333334 0.8333333 0.0005787037
 0.0 0.33333334 0.9166667 0.0005787037
 0.0 0.41666666 0.0 0.0005787037
 0.0 0.41666666 0.08333333 0.0005787037
 0.0 0.41666666 0.16666667 0.0005787037
 0.0 0.41666666 0.25 0.0005787037
 0.0 0.41666666 0.33333334 0.0005787037
 0.0 0.41666666 0.41666666 0.0005787037
 0.0 0.41666666 0.5 0.0005787037
 0.0 0.41666666 0.5833333 0.0005787037
 0.0 0.41666666 0.6666667 0.0005787037
 0.0 0.41666666 0.75 0.0005787037
 0.0 0.41666666 0.8333333 0.0005787037
 0.0 0.41666666 0.9166667 0.0005787037
 0.0 0.5 0.0 0.0005787037
 0.0 0.5 0.08333333 0.0005787037
 0.0 0.5 0.16666667 0.0005787037
 0.0 0.5 0.25 0.0005787037
 0.0 0.5 0.33333334 0.0005787037
 0.0 0.5 0.41666666 0.0005787037
 0.0 0.5 0.5 0.0005787037
 0.0 0.5 0.5833333 0.0005787037
 0.0 0.5 0.6666667 0.0005787037
 0.0 0.5 0.75 0.0005787037
 0.0 0.5 0.8333333 0.0005787037
 0.0 0.5 0.9166667 0.0005787037
 0.0 0.5833333 0.0 0.0005787037
 0.0 0.5833333 0.08333333 0.0005787037
 0.0 0.5833333 0.16666667 0.0005787037
 0.0 0.5833333 0.25 0.0005787037
 0.0 0.5833333 0.33333334 0.0005787037
 0.0 0.5833333 0.41666666 0.0005787037
 0.0 0.5833333 0.5 0.0005787037
 0.0 0.5833333 0.5833333 0.0005787037
 0.0 0.5833333 0.6666667 0.0005787037
 0.0 0.5833333 0.75 0.0005787037
 0.0 0.5833333 0.8333333 0.0005787037
 0.0 0.5833333 0.9166667 0.0005787037
 0.0 0.6666667 0.0 0.0005787037
 0.0 0.6666667 0.08333333 0.0005787037
 0.0 0.6666667 0.16666667 0.0005787037
 0.0 0.6666667 0.25 0.0005787037
 0.0 0.6666667 0.33333334 0.0005787037
 0.0 0.6666667 0.41666666 0.0005787037
 0.0 0.6666667 0.5 0.0005787037
 0.0 0.6666667 0.5833333 0.0005787037
 0.0 0.6666667 0.6666667 0.0005787037
 0.0 0.6666667 0.75 0.0005787037
 0.0 0.6666667 0.8333333 0.0005787037
 0.0 0.6666667 0.9166667 0.0005787037
 0.0 0.75 0.0 0.0005787037
 0.0 0.75 0.08333333 0.0005787037
 0.0 0.75 0.16666667 0.0005787037
 0.0 0.75 0.25 0.0005787037
 0.0 0.75 0.33333334 0.0005787037
 0.0 0.75 0.41666666 0.0005787037
 0.0 0.75 0.5 0.0005787037
 0.0 0.75 0.5833333 0.0005787037
 0.0 0.75 0.6666667 0.0005787037
 0.0 0.75 0.75 0.0005787037
 0.0 0.75 0.8333333 0.0005787037
 0.0 0.75 0.9166667 0.0005787037
 0.0 0.8333333 0.0 0.0005787037
 0.0 0.8333333 0.08333333 0.0005787037
 0.0 0.8333333 0.16666667 0.0005787037
 0.0 0.8333333 0.25 0.0005787037
 0.0 0.8333333 0.33333334 0.0005787037
 0.0 0.8333333 0.41666666 0.0005787037
 0.0 0.8333333 0.5 0.0005787037
 0.0 0.8333333 0.5833333 0.0005787037
 0.0 0.8333333 0.6666667 0.0005787037
 0.0 0.8333333 0.75 0.0005787037
 0.0 0.8333333 0.8333333 0.0005787037
 0.0 0.8333333 0.9166667 0.0005787037
 0.0 0.9166667 0.0 0.0005787037
 0.0 0.9166667 0.08333333 0.0005787037
 0.0 0.9166667 0.16666667 0.0005787037
 0.0 0.9166667 0.25 0.0005787037
 0.0 0.9166667 0.33333334 0.0005787037
 0.0 0.9166667 0.41666666 0.0005787037
 0.0 0.9166667 0.5 0.0005787037
 0.0 0.9166667 0.5833333 0.0005787037
 0.0 0.9166667 0.6666667 0.0005787037
 0.0 0.9166667 0.75 0.0005787037
 0.0 0.9166667 0.8333333 0.0005787037
 0.0 0.9166667 0.9166667 0.0005787037
 0.08333333 0.0 0.0 0.0005787037
 0.08333333 0.0 0.08333333 0.0005787037
 0.08333333 0.0 0.16666667 0.0005787037
 0.08333333 0.0 0.25 0.0005787037
 0.08333333 0.0 0.33333334 0.0005787037
 0.08333333 0.0 0.41666666 0.0005787037
 0.08333333 0.0 0.5 0.0005787037
 0.08333333 0.0 0.5833333 0.0005787037
 0.08333333 0.0 0.6666667 0.0005787037
 0.08333333 0.0 0.75 0.0005787037
 0.08333333 0.0 0.8333333 0.0005787037
 0.08333333 0.0 0.9166667 0.0005787037
 0.08333333 0.08333333 0.0 0.0005787037
 0.08333333 0.08333333 0.08333333 0.0005787037
 0.08333333 0.08333333 0.16666667 0.0005787037
 0.08333333 0.08333333 0.25 0.0005787037
 0.08333333 0.08333333 0.33333334 0.0005787037
 0.08333333 0.08333333 0.41666666 0.0005787037
 0.08333333 0.08333333 0.5 0.0005787037
 0.08333333 0.08333333 0.5833333 0.0005787037
 0.08333333 0.08333333 0.6666667 0.0005787037
 0.08333333 0.08333333 0.75 0.0005787037
 0.08333333 0.08333333 0.8333333 0.0005787037
 0.08333333 0.08333333 0.9166667 0.0005787037
 0.08333333 0.16666667 0.0 0.0005787037
 0.08333333 0.16666667 0.08333333 0.0005787037
 0.08333333 0.16666667 0.16666667 0.0005787037
 0.08333333 0.16666667 0.25 0.0005787037
 0.08333333 0.16666667 0.33333334 0.0005787037
 0.08333333 0.16666667 0.41666666 0.0005787037
 0.08333333 0.16666667 0.5 0.0005787037
 0.08333333 0.16666667 0.5833333 0.0005787037
 0.08333333 0.16666667 0.6666667 0.0005787037
 0.08333333 0.16666667 0.75 0.0005787037
 0.08333333 0.16666667 0.8333333 0.0005787037
 0.08333333 0.16666667 0.9166667 0.0005787037
 0.08333333 0.25 0.0 0.0005787037
 0.08333333 0.25 0.08333333 0.0005787037
 0.08333333 0.25 0.16666667 0.0005787037
 0.08333333 0.25 0.25 0.0005787037
 0.08333333 0.25 0.33333334 0.0005787037
 0.08333333 0.25 0.41666666 0.0005787037
 0.08333333 0.25 0.5 0.0005787037
 0.08333333 0.25 0.5833333 0.0005787037
 0.08333333 0.25 0.6666667 0.0005787037
 0.08333333 0.25 0.75 0.0005787037
 0.08333333 0.25 0.8333333 0.0005787037
 0.08333333 0.25 0.9166667 0.0005787037
 0.08333333 0.33333334 0.0 0.0005787037
 0.08333333 0.33333334 0.08333333 0.0005787037
 0.08333333 0.33333334 0.16666667 0.0005787037
 0.08333333 0.33333334 0.25 0.0005787037
 0.08333333 0.33333334 0.33333334 0.0005787037
 0.08333333 0.33333334 0.41666666 0.0005787037
 0.08333333 0.33333334 0.5 0.0005787037
 0.08333333 0.33333334 0.5833333 0.0005787037
 0.08333333 0.33333334 0.6666667 0.0005787037
 0.08333333 0.33333334 0.75 0.0005787037
 0.08333333 0.33333334 0.8333333 0.0005787037
 0.08333333 0.33333334 0.9166667 0.0005787037
 0.08333333 0.41666666 0.0 0.0005787037
 0.08333333 0.41666666 0.08333333 0.0005787037
 0.08333333 0.41666666 0.16666667 0.0005787037
 0.08333333 0.41666666 0.25 0.0005787037
 0.08333333 0.41666666 0.33333334 0.0005787037
 0.08333333 0.41666666 0.41666666 0.0005787037
 0.08333333 0.41666666 0.5 0.0005787037
 0.08333333 0.41666666 0.5833333 0.0005787037
 0.08333333 0.41666666 0.6666667 0.0005787037
 0.08333333 0.41666666 0.75 0.0005787037
 0.08333333 0.41666666 0.8333333 0.0005787037
 0.08333333 0.41666666 0.9166667 0.0005787037
 0.08333333 0.5 0.0 0.0005787037
 0.08333333 0.5 0.08333333 0.0005787037
 0.08333333 0.5 0.16666667 0.0005787037
 0.08333333 0.5 0.25 0.0005787037
 0.08333333 0.5 0.33333334 0.0005787037
 0.08333333 0.5 0.41666666 0.0005787037
 0.08333333 0.5 0.5 0.0005787037
 0.08333333 0.5 0.5833333 0.0005787037
 0.08333333 0.5 0.6666667 0.0005787037
 0.08333333 0.5 0.75 0.0005787037
 0.08333333 0.5 0.8333333 0.0005787037
 0.08333333 0.5 0.9166667 0.0005787037
 0.08333333 0.5833333 0.0 0.0005787037
 0.08333333 0.5833333 0.08333333 0.0005787037
 0.08333333 0.5833333 0.16666667 0.0005787037
 0.08333333 0.5833333 0.25 0.0005787037
 0.08333333 0.5833333 0.33333334 0.0005787037
 0.08333333 0.5833333 0.41666666 0.0005787037
 0.08333333 0.5833333 0.5 0.0005787037
 0.08333333 0.5833333 0.5833333 0.0005787037
 0.08333333 0.5833333 0.6666667 0.0005787037
 0.08333333 0.5833333 0.75 0.0005787037
 0.08333333 0.5833333 0.8333333 0.0005787037
 0.08333333 0.5833333 0.9166667 0.0005787037
 0.08333333 0.6666667 0.0 0.0005787037
 0.08333333 0.6666667 0.08333333 0.0005787037
 0.08333333 0.6666667 0.16666667 0.0005787037
 0.08333333 0.6666667 0.25 0.0005787037
 0.08333333 0.6666667 0.33333334 0.0005787037
 0.08333333 0.6666667 0.41666666 0.0005787037
 0.08333333 0.6666667 0.5 0.0005787037
 0.08333333 0.6666667 0.5833333 0.0005787037
 0.08333333 0.6666667 0.6666667 0.0005787037
 0.08333333 0.6666667 0.75 0.0005787037
 0.08333333 0.6666667 0.8333333 0.0005787037
 0.08333333 0.6666667 0.9166667 0.0005787037
 0.08333333 0.75 0.0 0.0005787037
 0.08333333 0.75 0.08333333 0.0005787037
 0.08333333 0.75 0.16666667 0.0005787037
 0.08333333 0.75 0.25 0.0005787037
 0.08333333 0.75 0.33333334 0.0005787037
 0.08333333 0.75 0.41666666 0.0005787037
 0.08333333 0.75 0.5 0.0005787037
 0.08333333 0.75 0.5833333 0.0005787037
 0.08333333 0.75 0.6666667 0.0005787037
 0.08333333 0.75 0.75 0.0005787037
 0.08333333 0.75 0.8333333 0.0005787037
 0.08333333 0.75 0.9166667 0.0005787037
 0.08333333 0.8333333 0.0 0.0005787037
 0.08333333 0.8333333 0.08333333 0.0005787037
 0.08333333 0.8333333 0.16666667 0.0005787037
 0.08333333 0.8333333 0.25 0.0005787037
 0.08333333 0.8333333 0.33333334 0.0005787037
 0.08333333 0.8333333 0.41666666 0.0005787037
 0.08333333 0.8333333 0.5 0.0005787037
 0.08333333 0.8333333 0.5833333 0.0005787037
 0.08333333 0.8333333 0.6666667 0.0005787037
 0.08333333 0.8333333 0.75 0.0005787037
 0.08333333 0.8333333 0.8333333 0.0005787037
 0.08333333 0.8333333 0.9166667 0.0005787037
 0.08333333 0.9166667 0.0 0.0005787037
 0.08333333 0.9166667 0.08333333 0.0005787037
 0.08333333 0.9166667 0.16666667 0.0005787037
 0.08333333 0.9166667 0.25 0.0005787037
 0.08333333 0.9166667 0.33333334 0.0005787037
 0.08333333 0.9166667 0.41666666 0.0005787037
 0.08333333 0.9166667 0.5 0.0005787037
 0.08333333 0.9166667 0.5833333 0.0005787037
 0.08333333 0.9166667 0.6666667 0.0005787037
 0.08333333 0.9166667 0.75 0.0005787037
 0.08333333 0.9166667 0.8333333 0.0005787037
 0.08333333 0.9166667 0.9166667 0.0005787037
 0.16666667 0.0 0.0 0.0005787037
 0.16666667 0.0 0.08333333 0.0005787037
 0.16666667 0.0 0.16666667 0.0005787037
 0.16666667 0.0 0.25 0.0005787037
 0.16666667 0.0 0.33333334 0.0005787037
 0.16666667 0.0 0.41666666 0.0005787037
 0.16666667 0.0 0.5 0.0005787037
 0.16666667 0.0 0.5833333 0.0005787037
 0.16666667 0.0 0.6666667 0.0005787037
 0.16666667 0.0 0.75 0.0005787037
 0.16666667 0.0 0.8333333 0.0005787037
 0.16666667 0.0 0.9166667 0.0005787037
 0.16666667 0.08333333 0.0 0.0005787037
 0.16666667 0.08333333 0.08333333 0.0005787037
 0.16666667 0.08333333 0.16666667 0.0005787037
 0.16666667 0.08333333 0.25 0.0005787037
 0.16666667 0.08333333 0.33333334 0.0005787037
 0.16666667 0.08333333 0.41666666 0.0005787037
 0.16666667 0.08333333 0.5 0.0005787037
 0.16666667 0.08333333 0.5833333 0.0005787037
 0.16666667 0.08333333 0.6666667 0.0005787037
 0.16666667 0.08333333 0.75 0.0005787037
 0.16666667 0.08333333 0.8333333 0.0005787037
 0.16666667 0.08333333 0.9166667 0.0005787037
 0.16666667 0.16666667 0.0 0.0005787037
 0.16666667 0.16666667 0.08333333 0.0005787037
 0.16666667 0.16666667 0.16666667 0.0005787037
 0.16666667 0.16666667 0.25 0.0005787037
 0.16666667 0.16666667 0.33333334 0.0005787037
 0.16666667 0.16666667 0.41666666 0.0005787037
 0.16666667 0.16666667 0.5 0.0005787037
 0.16666667 0.16666667 0.5833333 0.0005787037
 0.16666667 0.16666667 0.6666667 0.0005787037
 0.16666667 0.16666667 0.75 0.0005787037
 0.16666667 0.16666667 0.8333333 0.0005787037
 0.16666667 0.16666667 0.9166667 0.0005787037
 0.16666667 0.25 0.0 0.0005787037
 0.16666667 0.25 0.08333333 0.0005787037
 0.16666667 0.25 0.16666667 0.0005787037
 0.16666667 0.25 0.25 0.0005787037
 0.16666667 0.25 0.33333334 0.0005787037
 0.16666667 0.25 0.41666666 0.0005787037
 0.16666667 0.25 0.5 0.0005787037
 0.16666667 0.25 0.5833333 0.0005787037
 0.16666667 0.25 0.6666667 0.0005787037
 0.16666667 0.25 0.75 0.0005787037
 0.16666667 0.25 0.8333333 0.0005787037
 0.16666667 0.25 0.9166667 0.0005787037
 0.16666667 0.33333334 0.0 0.0005787037
 0.16666667 0.33333334 0.08333333 0.0005787037
 0.16666667 0.33333334 0.16666667 0.0005787037
 0.16666667 0.33333334 0.25 0.0005787037
 0.16666667 0.33333334 0.33333334 0.0005787037
 0.16666667 0.33333334 0.41666666 0.0005787037
 0.16666667 0.33333334 0.5 0.0005787037
 0.16666667 0.33333334 0.5833333 0.0005787037
 0.16666667 0.33333334 0.6666667 0.0005787037
 0.16666667 0.33333334 0.75 0.0005787037
 0.16666667 0.33333334 0.8333333 0.0005787037
 0.16666667 0.33333334 0.9166667 0.0005787037
 0.16666667 0.41666666 0.0 0.0005787037
 0.16666667 0.41666666 0.08333333 0.0005787037
 0.16666667 0.41666666 0.16666667 0.0005787037
 0.16666667 0.41666666 0.25 0.0005787037
 0.16666667 0.41666666 0.33333334 0.0005787037
 0.16666667 0.41666666 0.41666666 0.0005787037
 0.16666667 0.41666666 0.5 0.0005787037
 0.16666667 0.41666666 0.5833333 0.0005787037
 0.16666667 0.41666666 0.6666667 0.0005787037
 0.16666667 0.41666666 0.75 0.0005787037
 0.16666667 0.41666666 0.8333333 0.0005787037
 0.16666667 0.41666666 0.9166667 0.0005787037
 0.16666667 0.5 0.0 0.0005787037
 0.16666667 0.5 0.08333333 0.0005787037
 0.16666667 0.5 0.16666667 0.0005787037
 0.16666667 0.5 0.25 0.0005787037
 0.16666667 0.5 0.33333334 0.0005787037
 0.16666667 0.5 0.41666666 0.0005787037
 0.16666667 0.5 0.5 0.0005787037
 0.16666667 0.5 0.5833333 0.0005787037
 0.16666667 0.5 0.6666667 0.0005787037
 0.16666667 0.5 0.75 0.0005787037
 0.16666667 0.5 0.8333333 0.0005787037
 0.16666667 0.5 0.9166667 0.0005787037
 0.16666667 0.5833333 0.0 0.0005787037
 0.16666667 0.5833333 0.08333333 0.0005787037
 0.16666667 0.5833333 0.16666667 0.0005787037
 0.16666667 0.5833333 0.25 0.0005787037
 0.16666667 0.5833333 0.33333334 0.0005787037
 0.16666667 0.5833333 0.41666666 0.0005787037
 0.16666667 0.5833333 0.5 0.0005787037
 0.16666667 0.5833333 0.5833333 0.0005787037
 0.16666667 0.5833333 0.6666667 0.0005787037
 0.16666667 0.5833333 0.75 0.0005787037
 0.16666667 0.5833333 0.8333333 0.0005787037
 0.16666667 0.5833333 0.9166667 0.0005787037
 0.16666667 0.6666667 0.0 0.0005787037
 0.16666667 0.6666667 0.08333333 0.0005787037
 0.16666667 0.6666667 0.16666667 0.0005787037
 0.16666667 0.6666667 0.25 0.0005787037
 0.16666667 0.6666667 0.33333334 0.0005787037
 0.16666667 0.6666667 0.41666666 0.0005787037
 0.16666667 0.6666667 0.5 0.0005787037
 0.16666667 0.6666667 0.5833333 0.0005787037
 0.16666667 0.6666667 0.6666667 0.0005787037
 0.16666667 0.6666667 0.75 0.0005787037
 0.16666667 0.6666667 0.8333333 0.0005787037
 0.16666667 0.6666667 0.9166667 0.0005787037
 0.16666667 0.75 0.0 0.0005787037
 0.16666667 0.75 0.08333333 0.0005787037
 0.16666667 0.75 0.16666667 0.0005787037
 0.16666667 0.75 0.25 0.0005787037
 0.16666667 0.75 0.33333334 0.0005787037
 0.16666667 0.75 0.41666666 0.0005787037
 0.16666667 0.75 0.5 0.0005787037
 0.16666667 0.75 0.5833333 0.0005787037
 0.16666667 0.75 0.6666667 0.0005787037
 0.16666667 0.75 0.75 0.0005787037
 0.16666667 0.75 0.8333333 0.0005787037
 0.16666667 0.75 0.9166667 0.0005787037
 0.16666667 0.8333333 0.0 0.0005787037
 0.16666667 0.8333333 0.08333333 0.0005787037
 0.16666667 0.8333333 0.16666667 0.0005787037
 0.16666667 0.8333333 0.25 0.0005787037
 0.16666667 0.8333333 0.33333334 0.0005787037
 0.16666667 0.8333333 0.41666666 0.0005787037
 0.16666667 0.8333333 0.5 0.0005787037
 0.16666667 0.8333333 0.5833333 0.0005787037
 0.16666667 0.8333333 0.6666667 0.0005787037
 0.16666667 0.8333333 0.75 0.0005787037
 0.16666667 0.8333333 0.8333333 0.0005787037
 0.16666667 0.8333333 0.9166667 0.0005787037
 0.16666667 0.9166667 0.0 0.0005787037
 0.16666667 0.9166667 0.08333333 0.0005787037
 0.16666667 0.9166667 0.16666667 0.0005787037
 0.16666667 0.9166667 0.25 0.0005787037
 0.16666667 0.9166667 0.33333334 0.0005787037
 0.16666667 0.9166667 0.41666666 0.0005787037
 0.16666667 0.9166667 0.5 0.0005787037
 0.16666667 0.9166667 0.5833333 0.0005787037
 0.16666667 0.9166667 0.6666667 0.0005787037
 0.16666667 0.9166667 0.75 0.0005787037
 0.16666667 0.9166667 0.8333333 0.0005787037
 0.16666667 0.9166667 0.9166667 0.0005787037
 0.25 0.0 0.0 0.0005787037
 0.25 0.0 0.08333333 0.0005787037
 0.25 0.0 0.16666667 0.0005787037
 0.25 0.0 0.25 0.0005787037
 0.25 0.0 0.33333334 0.0005787037
 0.25 0.0 0.41666666 0.0005787037
 0.25 0.0 0.5 0.0005787037
 0.25 0.0 0.5833333 0.0005787037
 0.25 0.0 0.6666667 0.0005787037
 0.25 0.0 0.75 0.0005787037
 0.25 0.0 0.8333333 0.0005787037
 0.25 0.0 0.9166667 0.0005787037
 0.25 0.08333333 0.0 0.0005787037
 0.25 0.08333333 0.08333333 0.0005787037
 0.25 0.08333333 0.16666667 0.0005787037
 0.25 0.08333333 0.25 0.0005787037
 0.25 0.08333333 0.33333334 0.0005787037
 0.25 0.08333333 0.41666666 0.0005787037
 0.25 0.08333333 0.5 0.0005787037
 0.25 0.08333333 0.5833333 0.0005787037
 0.25 0.08333333 0.6666667 0.0005787037
 0.25 0.08333333 0.75 0.0005787037
 0.25 0.08333333 0.8333333 0.0005787037
 0.25 0.08333333 0.9166667 0.0005787037
 0.25 0.16666667 0.0 0.0005787037
 0.25 0.16666667 0.08333333 0.0005787037
 0.25 0.16666667 0.16666667 0.0005787037
 0.25 0.16666667 0.25 0.0005787037
 0.25 0.16666667 0.33333334 0.0005787037
 0.25 0.16666667 0.41666666 0.0005787037
 0.25 0.16666667 0.5 0.0005787037
 0.25 0.16666667 0.5833333 0.0005787037
 0.25 0.16666667 0.6666667 0.0005787037
 0.25 0.16666667 0.75 0.0005787037
 0.25 0.16666667 0.8333333 0.0005787037
 0.25 0.16666667 0.9166667 0.0005787037
 0.25 0.25 0.0 0.0005787037
 0.25 0.25 0.08333333 0.0005787037
 0.25 0.25 0.16666667 0.0005787037
 0.25 0.25 0.25 0.0005787037
 0.25 0.25 0.33333334 0.0005787037
 0.25 0.25 0.41666666 0.0005787037
 0.25 0.25 0.5 0.0005787037
 0.25 0.25 0.5833333 0.0005787037
 0.25 0.25 0.6666667 0.0005787037
 0.25 0.25 0.75 0.0005787037
 0.25 0.25 0.8333333 0.0005787037
 0.25 0.25 0.9166667 0.0005787037
 0.25 0.33333334 0.0 0.0005787037
 0.25 0.33333334 0.08333333 0.0005787037
 0.25 0.33333334 0.16666667 0.0005787037
 0.25 0.33333334 0.25 0.0005787037
 0.25 0.33333334 0.33333334 0.0005787037
 0.25 0.33333334 0.41666666 0.0005787037
 0.25 0.33333334 0.5 0.0005787037
 0.25 0.33333334 0.5833333 0.0005787037
 0.25 0.33333334 0.6666667 0.0005787037
 0.25 0.33333334 0.75 0.0005787037
 0.25 0.33333334 0.8333333 0.0005787037
 0.25 0.33333334 0.9166667 0.0005787037
 0.25 0.41666666 0.0 0.0005787037
 0.25 0.41666666 0.08333333 0.0005787037
 0.25 0.41666666 0.16666667 0.0005787037
 0.25 0.41666666 0.25 0.0005787037
 0.25 0.41666666 0.33333334 0.0005787037
 0.25 0.41666666 0.41666666 0.0005787037
 0.25 0.41666666 0.5 0.0005787037
 0.25 0.41666666 0.5833333 0.0005787037
 0.25 0.41666666 0.6666667 0.0005787037
 0.25 0.41666666 0.75 0.0005787037
 0.25 0.41666666 0.8333333 0.0005787037
 0.25 0.41666666 0.9166667 0.0005787037
 0.25 0.5 0.0 0.0005787037
 0.25 0.5 0.08333333 0.0005787037
 0.25 0.5 0.16666667 0.0005787037
 0.25 0.5 0.25 0.0005787037
 0.25 0.5 0.33333334 0.0005787037
 0.25 0.5 0.41666666 0.0005787037
 0.25 0.5 0.5 0.0005787037
 0.25 0.5 0.5833333 0.0005787037
 0.25 0.5 0.6666667 0.0005787037
 0.25 0.5 0.75 0.0005787037
 0.25 0.5 0.8333333 0.0005787037
 0.25 0.5 0.9166667 0.0005787037
 0.25 0.5833333 0.0 0.0005787037
 0.25 0.5833333 0.08333333 0.0005787037
 0.25 0.5833333 0.16666667 0.0005787037
 0.25 0.5833333 0.25 0.0005787037
 0.25 0.5833333 0.33333334 0.0005787037
 0.25 0.5833333 0.41666666 0.0005787037
 0.25 0.5833333 0.5 0.0005787037
 0.25 0.5833333 0.5833333 0.0005787037
 0.25 0.5833333 0.6666667 0.0005787037
 0.25 0.5833333 0.75 0.0005787037
 0.25 0.5833333 0.8333333 0.0005787037
 0.25 0.5833333 0.9166667 0.0005787037
 0.25 0.6666667 0.0 0.0005787037
 0.25 0.6666667 0.08333333 0.0005787037
 0.25 0.6666667 0.16666667 0.0005787037
 0.25 0.6666667 0.25 0.0005787037
 0.25 0.6666667 0.33333334 0.0005787037
 0.25 0.6666667 0.41666666 0.0005787037
 0.25 0.6666667 0.5 0.0005787037
 0.25 0.6666667 0.5833333 0.0005787037
 0.25 0.6666667 0.6666667 0.0005787037
 0.25 0.6666667 0.75 0.0005787037
 0.25 0.6666667 0.8333333 0.0005787037
 0.25 0.6666667 0.9166667 0.0005787037
 0.25 0.75 0.0 0.0005787037
 0.25 0.75 0.08333333 0.0005787037
 0.25 0.75 0.16666667 0.0005787037
 0.25 0.75 0.25 0.0005787037
 0.25 0.75 0.33333334 0.0005787037
 0.25 0.75 0.41666666 0.0005787037
 0.25 0.75 0.5 0.0005787037
 0.25 0.75 0.5833333 0.0005787037
 0.25 0.75 0.6666667 0.0005787037
 0.25 0.75 0.75 0.0005787037
 0.25 0.75 0.8333333 0.0005787037
 0.25 0.75 0.9166667 0.0005787037
 0.25 0.8333333 0.0 0.0005787037
 0.25 0.8333333 0.08333333 0.0005787037
 0.25 0.8333333 0.16666667 0.0005787037
 0.25 0.8333333 0.25 0.0005787037
 0.25 0.8333333 0.33333334 0.0005787037
 0.25 0.8333333 0.41666666 0.0005787037
 0.25 0.8333333 0.5 0.0005787037
 0.25 0.8333333 0.5833333 0.0005787037
 0.25 0.8333333 0.6666667 0.0005787037
 0.25 0.8333333 0.75 0.0005787037
 0.25 0.8333333 0.8333333 0.0005787037
 0.25 0.8333333 0.9166667 0.0005787037
 0.25 0.9166667 0.0 0.0005787037
 0.25 0.9166667 0.08333333 0.0005787037
 0.25 0.9166667 0.16666667 0.0005787037
 0.25 0.9166667 0.25 0.0005787037
 0.25 0.9166667 0.33333334 0.0005787037
 0.25 0.9166667 0.41666666 0.0005787037
 0.25 0.9166667 0.5 0.0005787037
 0.25 0.9166667 0.5833333 0.0005787037
 0.25 0.9166667 0.6666667 0.0005787037
 0.25 0.9166667 0.75 0.0005787037
 0.25 0.9166667 0.8333333 0.0005787037
 0.25 0.9166667 0.9166667 0.0005787037
 0.33333334 0.0 0.0 0.0005787037
 0.33333334 0.0 0.08333333 0.0005787037
 0.33333334 0.0 0.16666667 0.0005787037
 0.33333334 0.0 0.25 0.0005787037
 0.33333334 0.0 0.33333334 0.0005787037
 0.33333334 0.0 0.41666666 0.0005787037
 0.33333334 0.0 0.5 0.0005787037
 0.33333334 0.0 0.5833333 0.0005787037
 0.33333334 0.0 0.6666667 0.0005787037
 0.33333334 0.0 0.75 0.0005787037
 0.33333334 0.0 0.8333333 0.0005787037
 0.33333334 0.0 0.9166667 0.0005787037
 0.33333334 0.08333333 0.0 0.0005787037
 0.33333334 0.08333333 0.08333333 0.0005787037
 0.33333334 0.08333333 0.16666667 0.0005787037
 0.33333334 0.08333333 0.25 0.0005787037
 0.33333334 0.08333333 0.33333334 0.0005787037
 0.33333334 0.08333333 0.41666666 0.0005787037
 0.33333334 0.08333333 0.5 0.0005787037
 0.33333334 0.08333333 0.5833333 0.0005787037
 0.33333334 0.08333333 0.6666667 0.0005787037
 0.33333334 0.08333333 0.75 0.0005787037
 0.33333334 0.08333333 0.8333333 0.0005787037
 0.33333334 0.08333333 0.9166667 0.0005787037
 0.33333334 0.16666667 0.0 0.0005787037
 0.33333334 0.16666667 0.08333333 0.0005787037
 0.33333334 0.16666667 0.16666667 0.0005787037
 0.33333334 0.16666667 0.25 0.0005787037
 0.33333334 0.16666667 0.33333334 0.0005787037
 0.33333334 0.16666667 0.41666666 0.0005787037
 0.33333334 0.16666667 0.5 0.0005787037
 0.33333334 0.16666667 0.5833333 0.0005787037
 0.33333334 0.16666667 0.6666667 0.0005787037
 0.33333334 0.16666667 0.75 0.0005787037
 0.33333334 0.16666667 0.8333333 0.0005787037
 0.33333334 0.16666667 0.9166667 0.0005787037
 0.33333334 0.25 0.0 0.0005787037
 0.33333334 0.25 0.08333333 0.0005787037
 0.33333334 0.25 0.16666667 0.0005787037
 0.33333334 0.25 0.25 0.0005787037
 0.33333334 0.25 0.33333334 0.0005787037
 0.33333334 0.25 0.41666666 0.0005787037
 0.33333334 0.25 0.5 0.0005787037
 0.33333334 0.25 0.5833333 0.0005787037
 0.33333334 0.25 0.6666667 0.0005787037
 0.33333334 0.25 0.75 0.0005787037
 0.33333334 0.25 0.8333333 0.0005787037
 0.33333334 0.25 0.9166667 0.0005787037
 0.33333334 0.33333334 0.0 0.0005787037
 0.33333334 0.33333334 0.08333333 0.0005787037
 0.33333334 0.33333334 0.16666667 0.0005787037
 0.33333334 0.33333334 0.25 0.0005787037
 0.33333334 0.33333334 0.33333334 0.0005787037
 0.33333334 0.33333334 0.41666666 0.0005787037
 0.33333334 0.33333334 0.5 0.0005787037
 0.33333334 0.33333334 0.5833333 0.0005787037
 0.33333334 0.33333334 0.6666667 0.0005787037
 0.33333334 0.33333334 0.75 0.0005787037
 0.33333334 0.33333334 0.8333333 0.0005787037
 0.33333334 0.33333334 0.9166667 0.0005787037
 0.33333334 0.41666666 0.0 0.0005787037
 0.33333334 0.41666666 0.08333333 0.0005787037
 0.33333334 0.41666666 0.16666667 0.0005787037
 0.33333334 0.41666666 0.25 0.0005787037
 0.33333334 0.41666666 0.33333334 0.0005787037
 0.33333334 0.41666666 0.41666666 0.0005787037
 0.33333334 0.41666666 0.5 0.0005787037
 0.33333334 0.41666666 0.5833333 0.0005787037
 0.33333334 0.41666666 0.6666667 0.0005787037
 0.33333334 0.41666666 0.75 0.0005787037
 0.33333334 0.41666666 0.8333333 0.0005787037
 0.33333334 0.41666666 0.9166667 0.0005787037
 0.33333334 0.5 0.0 0.0005787037
 0.33333334 0.5 0.08333333 0.0005787037
 0.33333334 0.5 0.16666667 0.0005787037
 0.33333334 0.5 0.25 0.0005787037
 0.33333334 0.5 0.33333334 0.0005787037
 0.33333334 0.5 0.41666666 0.0005787037
 0.33333334 0.5 0.5 0.0005787037
 0.33333334 0.5 0.5833333 0.0005787037
 0.33333334 0.5 0.6666667 0.0005787037
 0.33333334 0.5 0.75 0.0005787037
 0.33333334 0.5 0.8333333 0.0005787037
 0.33333334 0.5 0.9166667 0.0005787037
 0.33333334 0.5833333 0.0 0.0005787037
 0.33333334 0.5833333 0.08333333 0.0005787037
 0.33333334 0.5833333 0.16666667 0.0005787037
 0.33333334 0.5833333 0.25 0.0005787037
 0.33333334 0.5833333 0.33333334 0.0005787037
 0.33333334 0.5833333 0.41666666 0.0005787037
 0.33333334 0.5833333 0.5 0.0005787037
 0.33333334 0.5833333 0.5833333 0.0005787037
 0.33333334 0.5833333 0.6666667 0.0005787037
 0.33333334 0.5833333 0.75 0.0005787037
 0.33333334 0.5833333 0.8333333 0.0005787037
 0.33333334 0.5833333 0.9166667 0.0005787037
 0.33333334 0.6666667 0.0 0.0005787037
 0.33333334 0.6666667 0.08333333 0.0005787037
 0.33333334 0.6666667 0.16666667 0.0005787037
 0.33333334 0.6666667 0.25 0.0005787037
 0.33333334 0.6666667 0.33333334 0.0005787037
 0.33333334 0.6666667 0.41666666 0.0005787037
 0.33333334 0.6666667 0.5 0.0005787037
 0.33333334 0.6666667 0.5833333 0.0005787037
 0.33333334 0.6666667 0.6666667 0.0005787037
 0.33333334 0.6666667 0.75 0.0005787037
 0.33333334 0.6666667 0.8333333 0.0005787037
 0.33333334 0.6666667 0.9166667 0.0005787037
 0.33333334 0.75 0.0 0.0005787037
 0.33333334 0.75 0.08333333 0.0005787037
 0.33333334 0.75 0.16666667 0.0005787037
 0.33333334 0.75 0.25 0.0005787037
 0.33333334 0.75 0.33333334 0.0005787037
 0.33333334 0.75 0.41666666 0.0005787037
 0.33333334 0.75 0.5 0.0005787037
 0.33333334 0.75 0.5833333 0.0005787037
 0.33333334 0.75 0.6666667 0.0005787037
 0.33333334 0.75 0.75 0.0005787037
 0.33333334 0.75 0.8333333 0.0005787037
 0.33333334 0.75 0.9166667 0.0005787037
 0.33333334 0.8333333 0.0 0.0005787037
 0.33333334 0.8333333 0.08333333 0.0005787037
 0.33333334 0.8333333 0.16666667 0.0005787037
 0.33333334 0.8333333 0.25 0.0005787037
 0.33333334 0.8333333 0.33333334 0.0005787037
 0.33333334 0.8333333 0.41666666 0.0005787037
 0.33333334 0.8333333 0.5 0.0005787037
 0.33333334 0.8333333 0.5833333 0.0005787037
 0.33333334 0.8333333 0.6666667 0.0005787037
 0.33333334 0.8333333 0.75 0.0005787037
 0.33333334 0.8333333 0.8333333 0.0005787037
 0.33333334 0.8333333 0.9166667 0.0005787037
 0.33333334 0.9166667 0.0 0.0005787037
 0.33333334 0.9166667 0.08333333 0.0005787037
 0.33333334 0.9166667 0.16666667 0.0005787037
 0.33333334 0.9166667 0.25 0.0005787037
 0.33333334 0.9166667 0.33333334 0.0005787037
 0.33333334 0.9166667 0.41666666 0.0005787037
 0.33333334 0.9166667 0.5 0.0005787037
 0.33333334 0.9166667 0.5833333 0.0005787037
 0.33333334 0.9166667 0.6666667 0.0005787037
 0.33333334 0.9166667 0.75 0.0005787037
 0.33333334 0.9166667 0.8333333 0.0005787037
 0.33333334 0.9166667 0.9166667 0.0005787037
 0.41666666 0.0 0.0 0.0005787037
 0.41666666 0.0 0.08333333 0.0005787037
 0.41666666 0.0 0.16666667 0.0005787037
 0.41666666 0.0 0.25 0.0005787037
 0.41666666 0.0 0.33333334 0.0005787037
 0.41666666 0.0 0.41666666 0.0005787037
 0.41666666 0.0 0.5 0.0005787037
 0.41666666 0.0 0.5833333 0.0005787037
 0.41666666 0.0 0.6666667 0.0005787037
 0.41666666 0.0 0.75 0.0005787037
 0.41666666 0.0 0.8333333 0.0005787037
 0.41666666 0.0 0.9166667 0.0005787037
 0.41666666 0.08333333 0.0 0.0005787037
 0.41666666 0.08333333 0.08333333 0.0005787037
 0.41666666 0.08333333 0.16666667 0.0005787037
 0.41666666 0.08333333 0.25 0.0005787037
 0.41666666 0.08333333 0.33333334 0.0005787037