&control
  prefix = 'Pt'
  verbosity = 'high'
  calculation = 'nscf'
  outdir = '/tmp/outputs'
  pseudo_dir = '/home/ponet/.julia/dev/DFControl/test/testassets/pseudos'
  restart_mode = 'from_scratch'
/

&system
  ibrav = 0
  nat = 1
  ntyp = 1
  ecutwfc = 32.0
  ecutrho = 165.0
  nbnd = 8
/

&electrons
  mixing_beta = 0.7
  conv_thr = 1.0e-8
  mixing_mode = 'plain'
/

ATOMIC_SPECIES
Pt 195.078   Pt.UPF

CELL_PARAMETERS (angstrom)
2.812000036239624 0.0 0.0
1.406000018119812 2.4352634668262776 0.0
1.406000018119812 0.8117544897362435 2.2959884043905445

ATOMIC_POSITIONS (crystal) 
Pt  0.0 0.0 0.0

K_POINTS (crystal)
1000
 0.0 0.0 0.0 0.001
 0.1 0.0 0.0 0.001
 0.2 0.0 0.0 0.001
 0.3 0.0 0.0 0.001
 0.4 0.0 0.0 0.001
 0.5 0.0 0.0 0.001
 0.6 0.0 0.0 0.001
 0.7 0.0 0.0 0.001
 0.8 0.0 0.0 0.001
 0.9 0.0 0.0 0.001
 0.0 0.1 0.0 0.001
 0.1 0.1 0.0 0.001
 0.2 0.1 0.0 0.001
 0.3 0.1 0.0 0.001
 0.4 0.1 0.0 0.001
 0.5 0.1 0.0 0.001
 0.6 0.1 0.0 0.001
 0.7 0.1 0.0 0.001
 0.8 0.1 0.0 0.001
 0.9 0.1 0.0 0.001
 0.0 0.2 0.0 0.001
 0.1 0.2 0.0 0.001
 0.2 0.2 0.0 0.001
 0.3 0.2 0.0 0.001
 0.4 0.2 0.0 0.001
 0.5 0.2 0.0 0.001
 0.6 0.2 0.0 0.001
 0.7 0.2 0.0 0.001
 0.8 0.2 0.0 0.001
 0.9 0.2 0.0 0.001
 0.0 0.3 0.0 0.001
 0.1 0.3 0.0 0.001
 0.2 0.3 0.0 0.001
 0.3 0.3 0.0 0.001
 0.4 0.3 0.0 0.001
 0.5 0.3 0.0 0.001
 0.6 0.3 0.0 0.001
 0.7 0.3 0.0 0.001
 0.8 0.3 0.0 0.001
 0.9 0.3 0.0 0.001
 0.0 0.4 0.0 0.001
 0.1 0.4 0.0 0.001
 0.2 0.4 0.0 0.001
 0.3 0.4 0.0 0.001
 0.4 0.4 0.0 0.001
 0.5 0.4 0.0 0.001
 0.6 0.4 0.0 0.001
 0.7 0.4 0.0 0.001
 0.8 0.4 0.0 0.001
 0.9 0.4 0.0 0.001
 0.0 0.5 0.0 0.001
 0.1 0.5 0.0 0.001
 0.2 0.5 0.0 0.001
 0.3 0.5 0.0 0.001
 0.4 0.5 0.0 0.001
 0.5 0.5 0.0 0.001
 0.6 0.5 0.0 0.001
 0.7 0.5 0.0 0.001
 0.8 0.5 0.0 0.001
 0.9 0.5 0.0 0.001
 0.0 0.6 0.0 0.001
 0.1 0.6 0.0 0.001
 0.2 0.6 0.0 0.001
 0.3 0.6 0.0 0.001
 0.4 0.6 0.0 0.001
 0.5 0.6 0.0 0.001
 0.6 0.6 0.0 0.001
 0.7 0.6 0.0 0.001
 0.8 0.6 0.0 0.001
 0.9 0.6 0.0 0.001
 0.0 0.7 0.0 0.001
 0.1 0.7 0.0 0.001
 0.2 0.7 0.0 0.001
 0.3 0.7 0.0 0.001
 0.4 0.7 0.0 0.001
 0.5 0.7 0.0 0.001
 0.6 0.7 0.0 0.001
 0.7 0.7 0.0 0.001
 0.8 0.7 0.0 0.001
 0.9 0.7 0.0 0.001
 0.0 0.8 0.0 0.001
 0.1 0.8 0.0 0.001
 0.2 0.8 0.0 0.001
 0.3 0.8 0.0 0.001
 0.4 0.8 0.0 0.001
 0.5 0.8 0.0 0.001
 0.6 0.8 0.0 0.001
 0.7 0.8 0.0 0.001
 0.8 0.8 0.0 0.001
 0.9 0.8 0.0 0.001
 0.0 0.9 0.0 0.001
 0.1 0.9 0.0 0.001
 0.2 0.9 0.0 0.001
 0.3 0.9 0.0 0.001
 0.4 0.9 0.0 0.001
 0.5 0.9 0.0 0.001
 0.6 0.9 0.0 0.001
 0.7 0.9 0.0 0.001
 0.8 0.9 0.0 0.001
 0.9 0.9 0.0 0.001
 0.0 0.0 0.1 0.001
 0.1 0.0 0.1 0.001
 0.2 0.0 0.1 0.001
 0.3 0.0 0.1 0.001
 0.4 0.0 0.1 0.001
 0.5 0.0 0.1 0.001
 0.6 0.0 0.1 0.001
 0.7 0.0 0.1 0.001
 0.8 0.0 0.1 0.001
 0.9 0.0 0.1 0.001
 0.0 0.1 0.1 0.001
 0.1 0.1 0.1 0.001
 0.2 0.1 0.1 0.001
 0.3 0.1 0.1 0.001
 0.4 0.1 0.1 0.001
 0.5 0.1 0.1 0.001
 0.6 0.1 0.1 0.001
 0.7 0.1 0.1 0.001
 0.8 0.1 0.1 0.001
 0.9 0.1 0.1 0.001
 0.0 0.2 0.1 0.001
 0.1 0.2 0.1 0.001
 0.2 0.2 0.1 0.001
 0.3 0.2 0.1 0.001
 0.4 0.2 0.1 0.001
 0.5 0.2 0.1 0.001
 0.6 0.2 0.1 0.001
 0.7 0.2 0.1 0.001
 0.8 0.2 0.1 0.001
 0.9 0.2 0.1 0.001
 0.0 0.3 0.1 0.001
 0.1 0.3 0.1 0.001
 0.2 0.3 0.1 0.001
 0.3 0.3 0.1 0.001
 0.4 0.3 0.1 0.001
 0.5 0.3 0.1 0.001
 0.6 0.3 0.1 0.001
 0.7 0.3 0.1 0.001
 0.8 0.3 0.1 0.001
 0.9 0.3 0.1 0.001
 0.0 0.4 0.1 0.001
 0.1 0.4 0.1 0.001
 0.2 0.4 0.1 0.001
 0.3 0.4 0.1 0.001
 0.4 0.4 0.1 0.001
 0.5 0.4 0.1 0.001
 0.6 0.4 0.1 0.001
 0.7 0.4 0.1 0.001
 0.8 0.4 0.1 0.001
 0.9 0.4 0.1 0.001
 0.0 0.5 0.1 0.001
 0.1 0.5 0.1 0.001
 0.2 0.5 0.1 0.001
 0.3 0.5 0.1 0.001
 0.4 0.5 0.1 0.001
 0.5 0.5 0.1 0.001
 0.6 0.5 0.1 0.001
 0.7 0.5 0.1 0.001
 0.8 0.5 0.1 0.001
 0.9 0.5 0.1 0.001
 0.0 0.6 0.1 0.001
 0.1 0.6 0.1 0.001
 0.2 0.6 0.1 0.001
 0.3 0.6 0.1 0.001
 0.4 0.6 0.1 0.001
 0.5 0.6 0.1 0.001
 0.6 0.6 0.1 0.001
 0.7 0.6 0.1 0.001
 0.8 0.6 0.1 0.001
 0.9 0.6 0.1 0.001
 0.0 0.7 0.1 0.001
 0.1 0.7 0.1 0.001
 0.2 0.7 0.1 0.001
 0.3 0.7 0.1 0.001
 0.4 0.7 0.1 0.001
 0.5 0.7 0.1 0.001
 0.6 0.7 0.1 0.001
 0.7 0.7 0.1 0.001
 0.8 0.7 0.1 0.001
 0.9 0.7 0.1 0.001
 0.0 0.8 0.1 0.001
 0.1 0.8 0.1 0.001
 0.2 0.8 0.1 0.001
 0.3 0.8 0.1 0.001
 0.4 0.8 0.1 0.001
 0.5 0.8 0.1 0.001
 0.6 0.8 0.1 0.001
 0.7 0.8 0.1 0.001
 0.8 0.8 0.1 0.001
 0.9 0.8 0.1 0.001
 0.0 0.9 0.1 0.001
 0.1 0.9 0.1 0.001
 0.2 0.9 0.1 0.001
 0.3 0.9 0.1 0.001
 0.4 0.9 0.1 0.001
 0.5 0.9 0.1 0.001
 0.6 0.9 0.1 0.001
 0.7 0.9 0.1 0.001
 0.8 0.9 0.1 0.001
 0.9 0.9 0.1 0.001
 0.0 0.0 0.2 0.001
 0.1 0.0 0.2 0.001
 0.2 0.0 0.2 0.001
 0.3 0.0 0.2 0.001
 0.4 0.0 0.2 0.001
 0.5 0.0 0.2 0.001
 0.6 0.0 0.2 0.001
 0.7 0.0 0.2 0.001
 0.8 0.0 0.2 0.001
 0.9 0.0 0.2 0.001
 0.0 0.1 0.2 0.001
 0.1 0.1 0.2 0.001
 0.2 0.1 0.2 0.001
 0.3 0.1 0.2 0.001
 0.4 0.1 0.2 0.001
 0.5 0.1 0.2 0.001
 0.6 0.1 0.2 0.001
 0.7 0.1 0.2 0.001
 0.8 0.1 0.2 0.001
 0.9 0.1 0.2 0.001
 0.0 0.2 0.2 0.001
 0.1 0.2 0.2 0.001
 0.2 0.2 0.2 0.001
 0.3 0.2 0.2 0.001
 0.4 0.2 0.2 0.001
 0.5 0.2 0.2 0.001
 0.6 0.2 0.2 0.001
 0.7 0.2 0.2 0.001
 0.8 0.2 0.2 0.001
 0.9 0.2 0.2 0.001
 0.0 0.3 0.2 0.001
 0.1 0.3 0.2 0.001
 0.2 0.3 0.2 0.001
 0.3 0.3 0.2 0.001
 0.4 0.3 0.2 0.001
 0.5 0.3 0.2 0.001
 0.6 0.3 0.2 0.001
 0.7 0.3 0.2 0.001
 0.8 0.3 0.2 0.001
 0.9 0.3 0.2 0.001
 0.0 0.4 0.2 0.001
 0.1 0.4 0.2 0.001
 0.2 0.4 0.2 0.001
 0.3 0.4 0.2 0.001
 0.4 0.4 0.2 0.001
 0.5 0.4 0.2 0.001
 0.6 0.4 0.2 0.001
 0.7 0.4 0.2 0.001
 0.8 0.4 0.2 0.001
 0.9 0.4 0.2 0.001
 0.0 0.5 0.2 0.001
 0.1 0.5 0.2 0.001
 0.2 0.5 0.2 0.001
 0.3 0.5 0.2 0.001
 0.4 0.5 0.2 0.001
 0.5 0.5 0.2 0.001
 0.6 0.5 0.2 0.001
 0.7 0.5 0.2 0.001
 0.8 0.5 0.2 0.001
 0.9 0.5 0.2 0.001
 0.0 0.6 0.2 0.001
 0.1 0.6 0.2 0.001
 0.2 0.6 0.2 0.001
 0.3 0.6 0.2 0.001
 0.4 0.6 0.2 0.001
 0.5 0.6 0.2 0.001
 0.6 0.6 0.2 0.001
 0.7 0.6 0.2 0.001
 0.8 0.6 0.2 0.001
 0.9 0.6 0.2 0.001
 0.0 0.7 0.2 0.001
 0.1 0.7 0.2 0.001
 0.2 0.7 0.2 0.001
 0.3 0.7 0.2 0.001
 0.4 0.7 0.2 0.001
 0.5 0.7 0.2 0.001
 0.6 0.7 0.2 0.001
 0.7 0.7 0.2 0.001
 0.8 0.7 0.2 0.001
 0.9 0.7 0.2 0.001
 0.0 0.8 0.2 0.001
 0.1 0.8 0.2 0.001
 0.2 0.8 0.2 0.001
 0.3 0.8 0.2 0.001
 0.4 0.8 0.2 0.001
 0.5 0.8 0.2 0.001
 0.6 0.8 0.2 0.001
 0.7 0.8 0.2 0.001
 0.8 0.8 0.2 0.001
 0.9 0.8 0.2 0.001
 0.0 0.9 0.2 0.001
 0.1 0.9 0.2 0.001
 0.2 0.9 0.2 0.001
 0.3 0.9 0.2 0.001
 0.4 0.9 0.2 0.001
 0.5 0.9 0.2 0.001
 0.6 0.9 0.2 0.001
 0.7 0.9 0.2 0.001
 0.8 0.9 0.2 0.001
 0.9 0.9 0.2 0.001
 0.0 0.0 0.3 0.001
 0.1 0.0 0.3 0.001
 0.2 0.0 0.3 0.001
 0.3 0.0 0.3 0.001
 0.4 0.0 0.3 0.001
 0.5 0.0 0.3 0.001
 0.6 0.0 0.3 0.001
 0.7 0.0 0.3 0.001
 0.8 0.0 0.3 0.001
 0.9 0.0 0.3 0.001
 0.0 0.1 0.3 0.001
 0.1 0.1 0.3 0.001
 0.2 0.1 0.3 0.001
 0.3 0.1 0.3 0.001
 0.4 0.1 0.3 0.001
 0.5 0.1 0.3 0.001
 0.6 0.1 0.3 0.001
 0.7 0.1 0.3 0.001
 0.8 0.1 0.3 0.001
 0.9 0.1 0.3 0.001
 0.0 0.2 0.3 0.001
 0.1 0.2 0.3 0.001
 0.2 0.2 0.3 0.001
 0.3 0.2 0.3 0.001
 0.4 0.2 0.3 0.001
 0.5 0.2 0.3 0.001
 0.6 0.2 0.3 0.001
 0.7 0.2 0.3 0.001
 0.8 0.2 0.3 0.001
 0.9 0.2 0.3 0.001
 0.0 0.3 0.3 0.001
 0.1 0.3 0.3 0.001
 0.2 0.3 0.3 0.001
 0.3 0.3 0.3 0.001
 0.4 0.3 0.3 0.001
 0.5 0.3 0.3 0.001
 0.6 0.3 0.3 0.001
 0.7 0.3 0.3 0.001
 0.8 0.3 0.3 0.001
 0.9 0.3 0.3 0.001
 0.0 0.4 0.3 0.001
 0.1 0.4 0.3 0.001
 0.2 0.4 0.3 0.001
 0.3 0.4 0.3 0.001
 0.4 0.4 0.3 0.001
 0.5 0.4 0.3 0.001
 0.6 0.4 0.3 0.001
 0.7 0.4 0.3 0.001
 0.8 0.4 0.3 0.001
 0.9 0.4 0.3 0.001
 0.0 0.5 0.3 0.001
 0.1 0.5 0.3 0.001
 0.2 0.5 0.3 0.001
 0.3 0.5 0.3 0.001
 0.4 0.5 0.3 0.001
 0.5 0.5 0.3 0.001
 0.6 0.5 0.3 0.001
 0.7 0.5 0.3 0.001
 0.8 0.5 0.3 0.001
 0.9 0.5 0.3 0.001
 0.0 0.6 0.3 0.001
 0.1 0.6 0.3 0.001
 0.2 0.6 0.3 0.001
 0.3 0.6 0.3 0.001
 0.4 0.6 0.3 0.001
 0.5 0.6 0.3 0.001
 0.6 0.6 0.3 0.001
 0.7 0.6 0.3 0.001
 0.8 0.6 0.3 0.001
 0.9 0.6 0.3 0.001
 0.0 0.7 0.3 0.001
 0.1 0.7 0.3 0.001
 0.2 0.7 0.3 0.001
 0.3 0.7 0.3 0.001
 0.4 0.7 0.3 0.001
 0.5 0.7 0.3 0.001
 0.6 0.7 0.3 0.001
 0.7 0.7 0.3 0.001
 0.8 0.7 0.3 0.001
 0.9 0.7 0.3 0.001
 0.0 0.8 0.3 0.001
 0.1 0.8 0.3 0.001
 0.2 0.8 0.3 0.001
 0.3 0.8 0.3 0.001
 0.4 0.8 0.3 0.001
 0.5 0.8 0.3 0.001
 0.6 0.8 0.3 0.001
 0.7 0.8 0.3 0.001
 0.8 0.8 0.3 0.001
 0.9 0.8 0.3 0.001
 0.0 0.9 0.3 0.001
 0.1 0.9 0.3 0.001
 0.2 0.9 0.3 0.001
 0.3 0.9 0.3 0.001
 0.4 0.9 0.3 0.001
 0.5 0.9 0.3 0.001
 0.6 0.9 0.3 0.001
 0.7 0.9 0.3 0.001
 0.8 0.9 0.3 0.001
 0.9 0.9 0.3 0.001
 0.0 0.0 0.4 0.001
 0.1 0.0 0.4 0.001
 0.2 0.0 0.4 0.001
 0.3 0.0 0.4 0.001
 0.4 0.0 0.4 0.001
 0.5 0.0 0.4 0.001
 0.6 0.0 0.4 0.001
 0.7 0.0 0.4 0.001
 0.8 0.0 0.4 0.001
 0.9 0.0 0.4 0.001
 0.0 0.1 0.4 0.001
 0.1 0.1 0.4 0.001
 0.2 0.1 0.4 0.001
 0.3 0.1 0.4 0.001
 0.4 0.1 0.4 0.001
 0.5 0.1 0.4 0.001
 0.6 0.1 0.4 0.001
 0.7 0.1 0.4 0.001
 0.8 0.1 0.4 0.001
 0.9 0.1 0.4 0.001
 0.0 0.2 0.4 0.001
 0.1 0.2 0.4 0.001
 0.2 0.2 0.4 0.001
 0.3 0.2 0.4 0.001
 0.4 0.2 0.4 0.001
 0.5 0.2 0.4 0.001
 0.6 0.2 0.4 0.001
 0.7 0.2 0.4 0.001
 0.8 0.2 0.4 0.001
 0.9 0.2 0.4 0.001
 0.0 0.3 0.4 0.001
 0.1 0.3 0.4 0.001
 0.2 0.3 0.4 0.001
 0.3 0.3 0.4 0.001
 0.4 0.3 0.4 0.001
 0.5 0.3 0.4 0.001
 0.6 0.3 0.4 0.001
 0.7 0.3 0.4 0.001
 0.8 0.3 0.4 0.001
 0.9 0.3 0.4 0.001
 0.0 0.4 0.4 0.001
 0.1 0.4 0.4 0.001
 0.2 0.4 0.4 0.001
 0.3 0.4 0.4 0.001
 0.4 0.4 0.4 0.001
 0.5 0.4 0.4 0.001
 0.6 0.4 0.4 0.001
 0.7 0.4 0.4 0.001
 0.8 0.4 0.4 0.001
 0.9 0.4 0.4 0.001
 0.0 0.5 0.4 0.001
 0.1 0.5 0.4 0.001
 0.2 0.5 0.4 0.001
 0.3 0.5 0.4 0.001
 0.4 0.5 0.4 0.001
 0.5 0.5 0.4 0.001
 0.6 0.5 0.4 0.001
 0.7 0.5 0.4 0.001
 0.8 0.5 0.4 0.001
 0.9 0.5 0.4 0.001
 0.0 0.6 0.4 0.001
 0.1 0.6 0.4 0.001
 0.2 0.6 0.4 0.001
 0.3 0.6 0.4 0.001
 0.4 0.6 0.4 0.001
 0.5 0.6 0.4 0.001
 0.6 0.6 0.4 0.001
 0.7 0.6 0.4 0.001
 0.8 0.6 0.4 0.001
 0.9 0.6 0.4 0.001
 0.0 0.7 0.4 0.001
 0.1 0.7 0.4 0.001
 0.2 0.7 0.4 0.001
 0.3 0.7 0.4 0.001
 0.4 0.7 0.4 0.001
 0.5 0.7 0.4 0.001
 0.6 0.7 0.4 0.001
 0.7 0.7 0.4 0.001
 0.8 0.7 0.4 0.001
 0.9 0.7 0.4 0.001
 0.0 0.8 0.4 0.001
 0.1 0.8 0.4 0.001
 0.2 0.8 0.4 0.001
 0.3 0.8 0.4 0.001
 0.4 0.8 0.4 0.001
 0.5 0.8 0.4 0.001
 0.6 0.8 0.4 0.001
 0.7 0.8 0.4 0.001
 0.8 0.8 0.4 0.001
 0.9 0.8 0.4 0.001
 0.0 0.9 0.4 0.001
 0.1 0.9 0.4 0.001
 0.2 0.9 0.4 0.001
 0.3 0.9 0.4 0.001
 0.4 0.9 0.4 0.001
 0.5 0.9 0.4 0.001
 0.6 0.9 0.4 0.001
 0.7 0.9 0.4 0.001
 0.8 0.9 0.4 0.001
 0.9 0.9 0.4 0.001
 0.0 0.0 0.5 0.001
 0.1 0.0 0.5 0.001
 0.2 0.0 0.5 0.001
 0.3 0.0 0.5 0.001
 0.4 0.0 0.5 0.001
 0.5 0.0 0.5 0.001
 0.6 0.0 0.5 0.001
 0.7 0.0 0.5 0.001
 0.8 0.0 0.5 0.001
 0.9 0.0 0.5 0.001
 0.0 0.1 0.5 0.001
 0.1 0.1 0.5 0.001
 0.2 0.1 0.5 0.001
 0.3 0.1 0.5 0.001
 0.4 0.1 0.5 0.001
 0.5 0.1 0.5 0.001
 0.6 0.1 0.5 0.001
 0.7 0.1 0.5 0.001
 0.8 0.1 0.5 0.001
 0.9 0.1 0.5 0.001
 0.0 0.2 0.5 0.001
 0.1 0.2 0.5 0.001
 0.2 0.2 0.5 0.001
 0.3 0.2 0.5 0.001
 0.4 0.2 0.5 0.001
 0.5 0.2 0.5 0.001
 0.6 0.2 0.5 0.001
 0.7 0.2 0.5 0.001
 0.8 0.2 0.5 0.001
 0.9 0.2 0.5 0.001
 0.0 0.3 0.5 0.001
 0.1 0.3 0.5 0.001
 0.2 0.3 0.5 0.001
 0.3 0.3 0.5 0.001
 0.4 0.3 0.5 0.001
 0.5 0.3 0.5 0.001
 0.6 0.3 0.5 0.001
 0.7 0.3 0.5 0.001
 0.8 0.3 0.5 0.001
 0.9 0.3 0.5 0.001
 0.0 0.4 0.5 0.001
 0.1 0.4 0.5 0.001
 0.2 0.4 0.5 0.001
 0.3 0.4 0.5 0.001
 0.4 0.4 0.5 0.001
 0.5 0.4 0.5 0.001
 0.6 0.4 0.5 0.001
 0.7 0.4 0.5 0.001
 0.8 0.4 0.5 0.001
 0.9 0.4 0.5 0.001
 0.0 0.5 0.5 0.001
 0.1 0.5 0.5 0.001
 0.2 0.5 0.5 0.001
 0.3 0.5 0.5 0.001
 0.4 0.5 0.5 0.001
 0.5 0.5 0.5 0.001
 0.6 0.5 0.5 0.001
 0.7 0.5 0.5 0.001
 0.8 0.5 0.5 0.001
 0.9 0.5 0.5 0.001
 0.0 0.6 0.5 0.001
 0.1 0.6 0.5 0.001
 0.2 0.6 0.5 0.001
 0.3 0.6 0.5 0.001
 0.4 0.6 0.5 0.001
 0.5 0.6 0.5 0.001
 0.6 0.6 0.5 0.001
 0.7 0.6 0.5 0.001
 0.8 0.6 0.5 0.001
 0.9 0.6 0.5 0.001
 0.0 0.7 0.5 0.001
 0.1 0.7 0.5 0.001
 0.2 0.7 0.5 0.001
 0.3 0.7 0.5 0.001
 0.4 0.7 0.5 0.001
 0.5 0.7 0.5 0.001
 0.6 0.7 0.5 0.001
 0.7 0.7 0.5 0.001
 0.8 0.7 0.5 0.001
 0.9 0.7 0.5 0.001
 0.0 0.8 0.5 0.001
 0.1 0.8 0.5 0.001
 0.2 0.8 0.5 0.001
 0.3 0.8 0.5 0.001
 0.4 0.8 0.5 0.001
 0.5 0.8 0.5 0.001
 0.6 0.8 0.5 0.001
 0.7 0.8 0.5 0.001
 0.8 0.8 0.5 0.001
 0.9 0.8 0.5 0.001
 0.0 0.9 0.5 0.001
 0.1 0.9 0.5 0.001
 0.2 0.9 0.5 0.001
 0.3 0.9 0.5 0.001
 0.4 0.9 0.5 0.001
 0.5 0.9 0.5 0.001
 0.6 0.9 0.5 0.001
 0.7 0.9 0.5 0.001
 0.8 0.9 0.5 0.001
 0.9 0.9 0.5 0.001
 0.0 0.0 0.6 0.001
 0.1 0.0 0.6 0.001
 0.2 0.0 0.6 0.001
 0.3 0.0 0.6 0.001
 0.4 0.0 0.6 0.001
 0.5 0.0 0.6 0.001
 0.6 0.0 0.6 0.001
 0.7 0.0 0.6 0.001
 0.8 0.0 0.6 0.001
 0.9 0.0 0.6 0.001
 0.0 0.1 0.6 0.001
 0.1 0.1 0.6 0.001
 0.2 0.1 0.6 0.001
 0.3 0.1 0.6 0.001
 0.4 0.1 0.6 0.001
 0.5 0.1 0.6 0.001
 0.6 0.1 0.6 0.001
 0.7 0.1 0.6 0.001
 0.8 0.1 0.6 0.001
 0.9 0.1 0.6 0.001
 0.0 0.2 0.6 0.001
 0.1 0.2 0.6 0.001
 0.2 0.2 0.6 0.001
 0.3 0.2 0.6 0.001
 0.4 0.2 0.6 0.001
 0.5 0.2 0.6 0.001
 0.6 0.2 0.6 0.001
 0.7 0.2 0.6 0.001
 0.8 0.2 0.6 0.001
 0.9 0.2 0.6 0.001
 0.0 0.3 0.6 0.001
 0.1 0.3 0.6 0.001
 0.2 0.3 0.6 0.001
 0.3 0.3 0.6 0.001
 0.4 0.3 0.6 0.001
 0.5 0.3 0.6 0.001
 0.6 0.3 0.6 0.001
 0.7 0.3 0.6 0.001
 0.8 0.3 0.6 0.001
 0.9 0.3 0.6 0.001
 0.0 0.4 0.6 0.001
 0.1 0.4 0.6 0.001
 0.2 0.4 0.6 0.001
 0.3 0.4 0.6 0.001
 0.4 0.4 0.6 0.001
 0.5 0.4 0.6 0.001
 0.6 0.4 0.6 0.001
 0.7 0.4 0.6 0.001
 0.8 0.4 0.6 0.001
 0.9 0.4 0.6 0.001
 0.0 0.5 0.6 0.001
 0.1 0.5 0.6 0.001
 0.2 0.5 0.6 0.001
 0.3 0.5 0.6 0.001
 0.4 0.5 0.6 0.001
 0.5 0.5 0.6 0.001
 0.6 0.5 0.6 0.001
 0.7 0.5 0.6 0.001
 0.8 0.5 0.6 0.001
 0.9 0.5 0.6 0.001
 0.0 0.6 0.6 0.001
 0.1 0.6 0.6 0.001
 0.2 0.6 0.6 0.001
 0.3 0.6 0.6 0.001
 0.4 0.6 0.6 0.001
 0.5 0.6 0.6 0.001
 0.6 0.6 0.6 0.001
 0.7 0.6 0.6 0.001
 0.8 0.6 0.6 0.001
 0.9 0.6 0.6 0.001
 0.0 0.7 0.6 0.001
 0.1 0.7 0.6 0.001
 0.2 0.7 0.6 0.001
 0.3 0.7 0.6 0.001
 0.4 0.7 0.6 0.001
 0.5 0.7 0.6 0.001
 0.6 0.7 0.6 0.001
 0.7 0.7 0.6 0.001
 0.8 0.7 0.6 0.001
 0.9 0.7 0.6 0.001
 0.0 0.8 0.6 0.001
 0.1 0.8 0.6 0.001
 0.2 0.8 0.6 0.001
 0.3 0.8 0.6 0.001
 0.4 0.8 0.6 0.001
 0.5 0.8 0.6 0.001
 0.6 0.8 0.6 0.001
 0.7 0.8 0.6 0.001
 0.8 0.8 0.6 0.001
 0.9 0.8 0.6 0.001
 0.0 0.9 0.6 0.001
 0.1 0.9 0.6 0.001
 0.2 0.9 0.6 0.001
 0.3 0.9 0.6 0.001
 0.4 0.9 0.6 0.001
 0.5 0.9 0.6 0.001
 0.6 0.9 0.6 0.001
 0.7 0.9 0.6 0.001
 0.8 0.9 0.6 0.001
 0.9 0.9 0.6 0.001
 0.0 0.0 0.7 0.001
 0.1 0.0 0.7 0.001
 0.2 0.0 0.7 0.001
 0.3 0.0 0.7 0.001
 0.4 0.0 0.7 0.001
 0.5 0.0 0.7 0.001
 0.6 0.0 0.7 0.001
 0.7 0.0 0.7 0.001
 0.8 0.0 0.7 0.001
 0.9 0.0 0.7 0.001
 0.0 0.1 0.7 0.001
 0.1 0.1 0.7 0.001
 0.2 0.1 0.7 0.001
 0.3 0.1 0.7 0.001
 0.4 0.1 0.7 0.001
 0.5 0.1 0.7 0.001
 0.6 0.1 0.7 0.001
 0.7 0.1 0.7 0.001
 0.8 0.1 0.7 0.001
 0.9 0.1 0.7 0.001
 0.0 0.2 0.7 0.001
 0.1 0.2 0.7 0.001
 0.2 0.2 0.7 0.001
 0.3 0.2 0.7 0.001
 0.4 0.2 0.7 0.001
 0.5 0.2 0.7 0.001
 0.6 0.2 0.7 0.001
 0.7 0.2 0.7 0.001
 0.8 0.2 0.7 0.001
 0.9 0.2 0.7 0.001
 0.0 0.3 0.7 0.001
 0.1 0.3 0.7 0.001
 0.2 0.3 0.7 0.001
 0.3 0.3 0.7 0.001
 0.4 0.3 0.7 0.001
 0.5 0.3 0.7 0.001
 0.6 0.3 0.7 0.001
 0.7 0.3 0.7 0.001
 0.8 0.3 0.7 0.001
 0.9 0.3 0.7 0.001
 0.0 0.4 0.7 0.001
 0.1 0.4 0.7 0.001
 0.2 0.4 0.7 0.001
 0.3 0.4 0.7 0.001
 0.4 0.4 0.7 0.001
 0.5 0.4 0.7 0.001
 0.6 0.4 0.7 0.001
 0.7 0.4 0.7 0.001
 0.8 0.4 0.7 0.001
 0.9 0.4 0.7 0.001
 0.0 0.5 0.7 0.001
 0.1 0.5 0.7 0.001
 0.2 0.5 0.7 0.001
 0.3 0.5 0.7 0.001
 0.4 0.5 0.7 0.001
 0.5 0.5 0.7 0.001
 0.6 0.5 0.7 0.001
 0.7 0.5 0.7 0.001
 0.8 0.5 0.7 0.001
 0.9 0.5 0.7 0.001
 0.0 0.6 0.7 0.001
 0.1 0.6 0.7 0.001
 0.2 0.6 0.7 0.001
 0.3 0.6 0.7 0.001
 0.4 0.6 0.7 0.001
 0.5 0.6 0.7 0.001
 0.6 0.6 0.7 0.001
 0.7 0.6 0.7 0.001
 0.8 0.6 0.7 0.001
 0.9 0.6 0.7 0.001
 0.0 0.7 0.7 0.001
 0.1 0.7 0.7 0.001
 0.2 0.7 0.7 0.001
 0.3 0.7 0.7 0.001
 0.4 0.7 0.7 0.001
 0.5 0.7 0.7 0.001
 0.6 0.7 0.7 0.001
 0.7 0.7 0.7 0.001
 0.8 0.7 0.7 0.001
 0.9 0.7 0.7 0.001
 0.0 0.8 0.7 0.001
 0.1 0.8 0.7 0.001
 0.2 0.8 0.7 0.001
 0.3 0.8 0.7 0.001
 0.4 0.8 0.7 0.001
 0.5 0.8 0.7 0.001
 0.6 0.8 0.7 0.001
 0.7 0.8 0.7 0.001
 0.8 0.8 0.7 0.001
 0.9 0.8 0.7 0.001
 0.0 0.9 0.7 0.001
 0.1 0.9 0.7 0.001
 0.2 0.9 0.7 0.001
 0.3 0.9 0.7 0.001
 0.4 0.9 0.7 0.001
 0.5 0.9 0.7 0.001
 0.6 0.9 0.7 0.001
 0.7 0.9 0.7 0.001
 0.8 0.9 0.7 0.001
 0.9 0.9 0.7 0.001
 0.0 0.0 0.8 0.001
 0.1 0.0 0.8 0.001
 0.2 0.0 0.8 0.001
 0.3 0.0 0.8 0.001
 0.4 0.0 0.8 0.001
 0.5 0.0 0.8 0.001
 0.6 0.0 0.8 0.001
 0.7 0.0 0.8 0.001
 0.8 0.0 0.8 0.001
 0.9 0.0 0.8 0.001
 0.0 0.1 0.8 0.001
 0.1 0.1 0.8 0.001
 0.2 0.1 0.8 0.001
 0.3 0.1 0.8 0.001
 0.4 0.1 0.8 0.001
 0.5 0.1 0.8 0.001
 0.6 0.1 0.8 0.001
 0.7 0.1 0.8 0.001
 0.8 0.1 0.8 0.001
 0.9 0.1 0.8 0.001
 0.0 0.2 0.8 0.001
 0.1 0.2 0.8 0.001
 0.2 0.2 0.8 0.001
 0.3 0.2 0.8 0.001
 0.4 0.2 0.8 0.001
 0.5 0.2 0.8 0.001
 0.6 0.2 0.8 0.001
 0.7 0.2 0.8 0.001
 0.8 0.2 0.8 0.001
 0.9 0.2 0.8 0.001
 0.0 0.3 0.8 0.001
 0.1 0.3 0.8 0.001
 0.2 0.3 0.8 0.001
 0.3 0.3 0.8 0.001
 0.4 0.3 0.8 0.001
 0.5 0.3 0.8 0.001
 0.6 0.3 0.8 0.001
 0.7 0.3 0.8 0.001
 0.8 0.3 0.8 0.001
 0.9 0.3 0.8 0.001
 0.0 0.4 0.8 0.001
 0.1 0.4 0.8 0.001
 0.2 0.4 0.8 0.001
 0.3 0.4 0.8 0.001
 0.4 0.4 0.8 0.001
 0.5 0.4 0.8 0.001
 0.6 0.4 0.8 0.001
 0.7 0.4 0.8 0.001
 0.8 0.4 0.8 0.001
 0.9 0.4 0.8 0.001
 0.0 0.5 0.8 0.001
 0.1 0.5 0.8 0.001
 0.2 0.5 0.8 0.001
 0.3 0.5 0.8 0.001
 0.4 0.5 0.8 0.001
 0.5 0.5 0.8 0.001
 0.6 0.5 0.8 0.001
 0.7 0.5 0.8 0.001
 0.8 0.5 0.8 0.001
 0.9 0.5 0.8 0.001
 0.0 0.6 0.8 0.001
 0.1 0.6 0.8 0.001
 0.2 0.6 0.8 0.001
 0.3 0.6 0.8 0.001
 0.4 0.6 0.8 0.001
 0.5 0.6 0.8 0.001
 0.6 0.6 0.8 0.001
 0.7 0.6 0.8 0.001
 0.8 0.6 0.8 0.001
 0.9 0.6 0.8 0.001
 0.0 0.7 0.8 0.001
 0.1 0.7 0.8 0.001
 0.2 0.7 0.8 0.001
 0.3 0.7 0.8 0.001
 0.4 0.7 0.8 0.001
 0.5 0.7 0.8 0.001
 0.6 0.7 0.8 0.001
 0.7 0.7 0.8 0.001
 0.8 0.7 0.8 0.001
 0.9 0.7 0.8 0.001
 0.0 0.8 0.8 0.001
 0.1 0.8 0.8 0.001
 0.2 0.8 0.8 0.001
 0.3 0.8 0.8 0.001
 0.4 0.8 0.8 0.001
 0.5 0.8 0.8 0.001
 0.6 0.8 0.8 0.001
 0.7 0.8 0.8 0.001
 0.8 0.8 0.8 0.001
 0.9 0.8 0.8 0.001
 0.0 0.9 0.8 0.001
 0.1 0.9 0.8 0.001
 0.2 0.9 0.8 0.001
 0.3 0.9 0.8 0.001
 0.4 0.9 0.8 0.001
 0.5 0.9 0.8 0.001
 0.6 0.9 0.8 0.001
 0.7 0.9 0.8 0.001
 0.8 0.9 0.8 0.001
 0.9 0.9 0.8 0.001
 0.0 0.0 0.9 0.001
 0.1 0.0 0.9 0.001
 0.2 0.0 0.9 0.001
 0.3 0.0 0.9 0.001
 0.4 0.0 0.9 0.001
 0.5 0.0 0.9 0.001
 0.6 0.0 0.9 0.001
 0.7 0.0 0.9 0.001
 0.8 0.0 0.9 0.001
 0.9 0.0 0.9 0.001
 0.0 0.1 0.9 0.001
 0.1 0.1 0.9 0.001
 0.2 0.1 0.9 0.001
 0.3 0.1 0.9 0.001
 0.4 0.1 0.9 0.001
 0.5 0.1 0.9 0.001
 0.6 0.1 0.9 0.001
 0.7 0.1 0.9 0.001
 0.8 0.1 0.9 0.001
 0.9 0.1 0.9 0.001
 0.0 0.2 0.9 0.001
 0.1 0.2 0.9 0.001
 0.2 0.2 0.9 0.001
 0.3 0.2 0.9 0.001
 0.4 0.2 0.9 0.001
 0.5 0.2 0.9 0.001
 0.6 0.2 0.9 0.001
 0.7 0.2 0.9 0.001
 0.8 0.2 0.9 0.001
 0.9 0.2 0.9 0.001
 0.0 0.3 0.9 0.001
 0.1 0.3 0.9 0.001
 0.2 0.3 0.9 0.001
 0.3 0.3 0.9 0.001
 0.4 0.3 0.9 0.001
 0.5 0.3 0.9 0.001
 0.6 0.3 0.9 0.001
 0.7 0.3 0.9 0.001
 0.8 0.3 0.9 0.001
 0.9 0.3 0.9 0.001
 0.0 0.4 0.9 0.001
 0.1 0.4 0.9 0.001
 0.2 0.4 0.9 0.001
 0.3 0.4 0.9 0.001
 0.4 0.4 0.9 0.001
 0.5 0.4 0.9 0.001
 0.6 0.4 0.9 0.001
 0.7 0.4 0.9 0.001
 0.8 0.4 0.9 0.001
 0.9 0.4 0.9 0.001
 0.0 0.5 0.9 0.001
 0.1 0.5 0.9 0.001
 0.2 0.5 0.9 0.001
 0.3 0.5 0.9 0.001
 0.4 0.5 0.9 0.001
 0.5 0.5 0.9 0.001
 0.6 0.5 0.9 0.001
 0.7 0.5 0.9 0.001
 0.8 0.5 0.9 0.001
 0.9 0.5 0.9 0.001
 0.0 0.6 0.9 0.001
 0.1 0.6 0.9 0.001
 0.2 0.6 0.9 0.001
 0.3 0.6 0.9 0.001
 0.4 0.6 0.9 0.001
 0.5 0.6 0.9 0.001
 0.6 0.6 0.9 0.001
 0.7 0.6 0.9 0.001
 0.8 0.6 0.9 0.001
 0.9 0.6 0.9 0.001
 0.0 0.7 0.9 0.001
 0.1 0.7 0.9 0.001
 0.2 0.7 0.9 0.001
 0.3 0.7 0.9 0.001
 0.4 0.7 0.9 0.001
 0.5 0.7 0.9 0.001
 0.6 0.7 0.9 0.001
 0.7 0.7 0.9 0.001
 0.8 0.7 0.9 0.001
 0.9 0.7 0.9 0.001
 0.0 0.8 0.9 0.001
 0.1 0.8 0.9 0.001
 0.2 0.8 0.9 0.001
 0.3 0.8 0.9 0.001
 0.4 0.8 0.9 0.001
 0.5 0.8 0.9 0.001
 0.6 0.8 0.9 0.001
 0.7 0.8 0.9 0.001
 0.8 0.8 0.9 0.001
 0.9 0.8 0.9 0.001
 0.0 0.9 0.9 0.001
 0.1 0.9 0.9 0.001
 0.2 0.9 0.9 0.001
 0.3 0.9 0.9 0.001
 0.4 0.9 0.9 0.001
 0.5 0.9 0.9 0.001
 0.6 0.9 0.9 0.001
 0.7 0.9 0.9 0.001
 0.8 0.9 0.9 0.001
 0.9 0.9 0.9 0.001

