 &PROJWFC
prefix='pwo'
ngauss=-1
degauss=0.01
Emin=-5
Emax=15
kresolveddos=.true.
DeltaE=0.01
/
